p cnf 276 4148
-29 -79 -34 -84 0
-29 -92 -34 -97 0
-29 -106 -34 -111 0
-29 -191 -34 -196 0
-29 -211 -34 -216 0
-29 -232 -34 -237 0
-29 -254 -34 -259 0
-37 -56 -42 -61 0
-37 -67 -42 -72 0
-37 -106 -42 -111 0
-37 -154 -42 -159 0
-37 -172 -42 -177 0
-37 -232 -42 -237 0
-37 -254 -42 -259 0
-46 -56 -51 -61 0
-46 -67 -51 -72 0
-46 -92 -51 -97 0
-46 -121 -51 -126 0
-46 -137 -51 -142 0
-46 -191 -51 -196 0
-46 -211 -51 -216 0
-56 -67 -61 -72 0
-56 -137 -61 -142 0
-56 -154 -61 -159 0
-56 -191 -61 -196 0
-56 -254 -61 -259 0
-67 -121 -72 -126 0
-67 -172 -72 -177 0
-67 -211 -72 -216 0
-67 -232 -72 -237 0
-79 -92 -84 -97 0
-79 -106 -84 -111 0
-79 -121 -84 -126 0
-79 -137 -84 -142 0
-79 -154 -84 -159 0
-79 -172 -84 -177 0
-92 -137 -97 -142 0
-92 -172 -97 -177 0
-92 -211 -97 -216 0
-92 -254 -97 -259 0
-106 -121 -111 -126 0
-106 -154 -111 -159 0
-106 -191 -111 -196 0
-106 -232 -111 -237 0
-121 -137 -126 -142 0
-121 -172 -126 -177 0
-121 -191 -126 -196 0
-121 -232 -126 -237 0
-137 -154 -142 -159 0
-137 -232 -142 -237 0
-137 -254 -142 -259 0
-154 -172 -159 -177 0
-154 -191 -159 -196 0
-154 -211 -159 -216 0
-172 -211 -177 -216 0
-172 -254 -177 -259 0
-191 -211 -196 -216 0
-191 -254 -196 -259 0
-211 -232 -216 -237 0
-232 -254 -237 -259 0
-22 -29 -79 -36 -86 0
-22 -29 -92 -36 -99 0
-22 -29 -106 -36 -113 0
-22 -29 -191 -36 -198 0
-22 -29 -211 -36 -218 0
-22 -29 -232 -36 -239 0
-22 -29 -254 -36 -261 0
-22 -37 -56 -44 -63 0
-22 -37 -67 -44 -74 0
-22 -37 -106 -44 -113 0
-22 -37 -154 -44 -161 0
-22 -37 -172 -44 -179 0
-22 -37 -232 -44 -239 0
-22 -37 -254 -44 -261 0
-22 -46 -56 -53 -63 0
-22 -46 -67 -53 -74 0
-22 -46 -92 -53 -99 0
-22 -46 -121 -53 -128 0
-22 -46 -137 -53 -144 0
-22 -46 -191 -53 -198 0
-22 -46 -211 -53 -218 0
-22 -56 -67 -63 -74 0
-22 -56 -137 -63 -144 0
-22 -56 -154 -63 -161 0
-22 -56 -191 -63 -198 0
-22 -56 -254 -63 -261 0
-22 -67 -121 -74 -128 0
-22 -67 -172 -74 -179 0
-22 -67 -211 -74 -218 0
-22 -67 -232 -74 -239 0
-22 -79 -92 -86 -99 0
-22 -79 -106 -86 -113 0
-22 -79 -121 -86 -128 0
-22 -79 -137 -86 -144 0
-22 -79 -154 -86 -161 0
-22 -79 -172 -86 -179 0
-22 -92 -137 -99 -144 0
-22 -92 -172 -99 -179 0
-22 -92 -211 -99 -218 0
-22 -92 -254 -99 -261 0
-22 -106 -121 -113 -128 0
-22 -106 -154 -113 -161 0
-22 -106 -191 -113 -198 0
-22 -106 -232 -113 -239 0
-22 -121 -137 -128 -144 0
-22 -121 -172 -128 -179 0
-22 -121 -191 -128 -198 0
-22 -121 -232 -128 -239 0
-22 -137 -154 -144 -161 0
-22 -137 -232 -144 -239 0
-22 -137 -254 -144 -261 0
-22 -154 -172 -161 -179 0
-22 -154 -191 -161 -198 0
-22 -154 -211 -161 -218 0
-22 -172 -211 -179 -218 0
-22 -172 -254 -179 -261 0
-22 -191 -211 -198 -218 0
-22 -191 -254 -198 -261 0
-22 -211 -232 -218 -239 0
-22 -232 -254 -239 -261 0
-29 -79 -92 0
-29 -79 -106 0
-29 -92 -211 0
-29 -92 -254 0
-29 -106 -191 0
-29 -106 -232 0
-29 -191 -211 0
-29 -191 -254 0
-29 -211 -232 0
-29 -232 -254 0
-37 -56 -67 0
-37 -56 -154 0
-37 -56 -254 0
-37 -67 -172 0
-37 -67 -232 0
-37 -106 -154 0
-37 -106 -232 0
-37 -154 -172 0
-37 -172 -254 0
-37 -232 -254 0
-46 -56 -67 0
-46 -56 -137 0
-46 -56 -191 0
-46 -67 -121 0
-46 -67 -211 0
-46 -92 -137 0
-46 -92 -211 0
-46 -121 -137 0
-46 -121 -191 0
-46 -191 -211 0
-56 -137 -154 0
-56 -137 -254 0
-56 -154 -191 0
-56 -191 -254 0
-67 -121 -172 0
-67 -121 -232 0
-67 -172 -211 0
-67 -211 -232 0
-79 -92 -137 0
-79 -92 -172 0
-79 -106 -121 0
-79 -106 -154 0
-79 -121 -137 0
-79 -121 -172 0
-79 -137 -154 0
-79 -154 -172 0
-92 -137 -254 0
-92 -172 -211 0
-92 -172 -254 0
-106 -121 -191 0
-106 -121 -232 0
-106 -154 -191 0
-121 -137 -232 0
-137 -232 -254 0
-154 -172 -211 0
-154 -191 -211 0
-30 -80 -33 -83 0
-30 -93 -33 -96 0
-30 -107 -33 -110 0
-30 -192 -33 -195 0
-30 -212 -33 -215 0
-30 -233 -33 -236 0
-30 -255 -33 -258 0
-38 -57 -41 -60 0
-38 -68 -41 -71 0
-38 -107 -41 -110 0
-38 -155 -41 -158 0
-38 -173 -41 -176 0
-38 -233 -41 -236 0
-38 -255 -41 -258 0
-47 -57 -50 -60 0
-47 -68 -50 -71 0
-47 -93 -50 -96 0
-47 -122 -50 -125 0
-47 -138 -50 -141 0
-47 -192 -50 -195 0
-47 -212 -50 -215 0
-57 -68 -60 -71 0
-57 -138 -60 -141 0
-57 -155 -60 -158 0
-57 -192 -60 -195 0
-57 -255 -60 -258 0
-68 -122 -71 -125 0
-68 -173 -71 -176 0
-68 -212 -71 -215 0
-68 -233 -71 -236 0
-80 -93 -83 -96 0
-80 -107 -83 -110 0
-80 -122 -83 -125 0
-80 -138 -83 -141 0
-80 -155 -83 -158 0
-80 -173 -83 -176 0
-93 -138 -96 -141 0
-93 -173 -96 -176 0
-93 -212 -96 -215 0
-93 -255 -96 -258 0
-107 -122 -110 -125 0
-107 -155 -110 -158 0
-107 -192 -110 -195 0
-107 -233 -110 -236 0
-122 -138 -125 -141 0
-122 -173 -125 -176 0
-122 -192 -125 -195 0
-122 -233 -125 -236 0
-138 -155 -141 -158 0
-138 -233 -141 -236 0
-138 -255 -141 -258 0
-155 -173 -158 -176 0
-155 -192 -158 -195 0
-155 -212 -158 -215 0
-173 -212 -176 -215 0
-173 -255 -176 -258 0
-192 -212 -195 -215 0
-192 -255 -195 -258 0
-212 -233 -215 -236 0
-233 -255 -236 -258 0
-30 -80 -93 0
-30 -80 -107 0
-30 -93 -212 0
-30 -93 -255 0
-30 -107 -192 0
-30 -107 -233 0
-30 -192 -212 0
-30 -192 -255 0
-30 -212 -233 0
-30 -233 -255 0
-38 -57 -68 0
-38 -57 -155 0
-38 -57 -255 0
-38 -68 -173 0
-38 -68 -233 0
-38 -107 -155 0
-38 -107 -233 0
-38 -155 -173 0
-38 -173 -255 0
-38 -233 -255 0
-47 -57 -68 0
-47 -57 -138 0
-47 -57 -192 0
-47 -68 -122 0
-47 -68 -212 0
-47 -93 -138 0
-47 -93 -212 0
-47 -122 -138 0
-47 -122 -192 0
-47 -192 -212 0
-57 -138 -155 0
-57 -138 -255 0
-57 -155 -192 0
-57 -192 -255 0
-68 -122 -173 0
-68 -122 -233 0
-68 -173 -212 0
-68 -212 -233 0
-80 -93 -138 0
-80 -93 -173 0
-80 -107 -122 0
-80 -107 -155 0
-80 -122 -138 0
-80 -122 -173 0
-80 -138 -155 0
-80 -155 -173 0
-93 -138 -255 0
-93 -173 -212 0
-93 -173 -255 0
-107 -122 -192 0
-107 -122 -233 0
-107 -155 -192 0
-122 -138 -233 0
-138 -233 -255 0
-155 -173 -212 0
-155 -192 -212 0
-6 -31 -81 -32 -82 0
-6 -31 -94 -32 -95 0
-6 -31 -108 -32 -109 0
-6 -31 -193 -32 -194 0
-6 -31 -213 -32 -214 0
-6 -31 -234 -32 -235 0
-6 -31 -256 -32 -257 0
-6 -39 -58 -40 -59 0
-6 -39 -69 -40 -70 0
-6 -39 -108 -40 -109 0
-6 -39 -156 -40 -157 0
-6 -39 -174 -40 -175 0
-6 -39 -234 -40 -235 0
-6 -39 -256 -40 -257 0
-6 -48 -58 -49 -59 0
-6 -48 -69 -49 -70 0
-6 -48 -94 -49 -95 0
-6 -48 -123 -49 -124 0
-6 -48 -139 -49 -140 0
-6 -48 -193 -49 -194 0
-6 -48 -213 -49 -214 0
-6 -58 -69 -59 -70 0
-6 -58 -139 -59 -140 0
-6 -58 -156 -59 -157 0
-6 -58 -193 -59 -194 0
-6 -58 -256 -59 -257 0
-6 -69 -123 -70 -124 0
-6 -69 -174 -70 -175 0
-6 -69 -213 -70 -214 0
-6 -69 -234 -70 -235 0
-6 -81 -94 -82 -95 0
-6 -81 -108 -82 -109 0
-6 -81 -123 -82 -124 0
-6 -81 -139 -82 -140 0
-6 -81 -156 -82 -157 0
-6 -81 -174 -82 -175 0
-6 -94 -139 -95 -140 0
-6 -94 -174 -95 -175 0
-6 -94 -213 -95 -214 0
-6 -94 -256 -95 -257 0
-6 -108 -123 -109 -124 0
-6 -108 -156 -109 -157 0
-6 -108 -193 -109 -194 0
-6 -108 -234 -109 -235 0
-6 -123 -139 -124 -140 0
-6 -123 -174 -124 -175 0
-6 -123 -193 -124 -194 0
-6 -123 -234 -124 -235 0
-6 -139 -156 -140 -157 0
-6 -139 -234 -140 -235 0
-6 -139 -256 -140 -257 0
-6 -156 -174 -157 -175 0
-6 -156 -193 -157 -194 0
-6 -156 -213 -157 -214 0
-6 -174 -213 -175 -214 0
-6 -174 -256 -175 -257 0
-6 -193 -213 -194 -214 0
-6 -193 -256 -194 -257 0
-6 -213 -234 -214 -235 0
-6 -234 -256 -235 -257 0
-31 -81 -36 -86 0
-31 -94 -36 -99 0
-31 -108 -36 -113 0
-31 -193 -36 -198 0
-31 -213 -36 -218 0
-31 -234 -36 -239 0
-31 -256 -36 -261 0
-39 -58 -44 -63 0
-39 -69 -44 -74 0
-39 -108 -44 -113 0
-39 -156 -44 -161 0
-39 -174 -44 -179 0
-39 -234 -44 -239 0
-39 -256 -44 -261 0
-48 -58 -53 -63 0
-48 -69 -53 -74 0
-48 -94 -53 -99 0
-48 -123 -53 -128 0
-48 -139 -53 -144 0
-48 -193 -53 -198 0
-48 -213 -53 -218 0
-58 -69 -63 -74 0
-58 -139 -63 -144 0
-58 -156 -63 -161 0
-58 -193 -63 -198 0
-58 -256 -63 -261 0
-69 -123 -74 -128 0
-69 -174 -74 -179 0
-69 -213 -74 -218 0
-69 -234 -74 -239 0
-81 -94 -86 -99 0
-81 -108 -86 -113 0
-81 -123 -86 -128 0
-81 -139 -86 -144 0
-81 -156 -86 -161 0
-81 -174 -86 -179 0
-94 -139 -99 -144 0
-94 -174 -99 -179 0
-94 -213 -99 -218 0
-94 -256 -99 -261 0
-108 -123 -113 -128 0
-108 -156 -113 -161 0
-108 -193 -113 -198 0
-108 -234 -113 -239 0
-123 -139 -128 -144 0
-123 -174 -128 -179 0
-123 -193 -128 -198 0
-123 -234 -128 -239 0
-139 -156 -144 -161 0
-139 -234 -144 -239 0
-139 -256 -144 -261 0
-156 -174 -161 -179 0
-156 -193 -161 -198 0
-156 -213 -161 -218 0
-174 -213 -179 -218 0
-174 -256 -179 -261 0
-193 -213 -198 -218 0
-193 -256 -198 -261 0
-213 -234 -218 -239 0
-234 -256 -239 -261 0
-31 -81 -94 0
-31 -81 -108 0
-31 -94 -213 0
-31 -94 -256 0
-31 -108 -193 0
-31 -108 -234 0
-31 -193 -213 0
-31 -193 -256 0
-31 -213 -234 0
-31 -234 -256 0
-39 -58 -69 0
-39 -58 -156 0
-39 -58 -256 0
-39 -69 -174 0
-39 -69 -234 0
-39 -108 -156 0
-39 -108 -234 0
-39 -156 -174 0
-39 -174 -256 0
-39 -234 -256 0
-48 -58 -69 0
-48 -58 -139 0
-48 -58 -193 0
-48 -69 -123 0
-48 -69 -213 0
-48 -94 -139 0
-48 -94 -213 0
-48 -123 -139 0
-48 -123 -193 0
-48 -193 -213 0
-58 -139 -156 0
-58 -139 -256 0
-58 -156 -193 0
-58 -193 -256 0
-69 -123 -174 0
-69 -123 -234 0
-69 -174 -213 0
-69 -213 -234 0
-81 -94 -139 0
-81 -94 -174 0
-81 -108 -123 0
-81 -108 -156 0
-81 -123 -139 0
-81 -123 -174 0
-81 -139 -156 0
-81 -156 -174 0
-94 -139 -256 0
-94 -174 -213 0
-94 -174 -256 0
-108 -123 -193 0
-108 -123 -234 0
-108 -156 -193 0
-123 -139 -234 0
-139 -234 -256 0
-156 -174 -213 0
-156 -193 -213 0
-32 -82 -35 -85 0
-32 -95 -35 -98 0
-32 -109 -35 -112 0
-32 -194 -35 -197 0
-32 -214 -35 -217 0
-32 -235 -35 -238 0
-32 -257 -35 -260 0
-40 -59 -43 -62 0
-40 -70 -43 -73 0
-40 -109 -43 -112 0
-40 -157 -43 -160 0
-40 -175 -43 -178 0
-40 -235 -43 -238 0
-40 -257 -43 -260 0
-49 -59 -52 -62 0
-49 -70 -52 -73 0
-49 -95 -52 -98 0
-49 -124 -52 -127 0
-49 -140 -52 -143 0
-49 -194 -52 -197 0
-49 -214 -52 -217 0
-59 -70 -62 -73 0
-59 -140 -62 -143 0
-59 -157 -62 -160 0
-59 -194 -62 -197 0
-59 -257 -62 -260 0
-70 -124 -73 -127 0
-70 -175 -73 -178 0
-70 -214 -73 -217 0
-70 -235 -73 -238 0
-82 -95 -85 -98 0
-82 -109 -85 -112 0
-82 -124 -85 -127 0
-82 -140 -85 -143 0
-82 -157 -85 -160 0
-82 -175 -85 -178 0
-95 -140 -98 -143 0
-95 -175 -98 -178 0
-95 -214 -98 -217 0
-95 -257 -98 -260 0
-109 -124 -112 -127 0
-109 -157 -112 -160 0
-109 -194 -112 -197 0
-109 -235 -112 -238 0
-124 -140 -127 -143 0
-124 -175 -127 -178 0
-124 -194 -127 -197 0
-124 -235 -127 -238 0
-140 -157 -143 -160 0
-140 -235 -143 -238 0
-140 -257 -143 -260 0
-157 -175 -160 -178 0
-157 -194 -160 -197 0
-157 -214 -160 -217 0
-175 -214 -178 -217 0
-175 -257 -178 -260 0
-194 -214 -197 -217 0
-194 -257 -197 -260 0
-214 -235 -217 -238 0
-235 -257 -238 -260 0
-32 -82 -95 0
-32 -82 -109 0
-32 -95 -214 0
-32 -95 -257 0
-32 -109 -194 0
-32 -109 -235 0
-32 -194 -214 0
-32 -194 -257 0
-32 -214 -235 0
-32 -235 -257 0
-40 -59 -70 0
-40 -59 -157 0
-40 -59 -257 0
-40 -70 -175 0
-40 -70 -235 0
-40 -109 -157 0
-40 -109 -235 0
-40 -157 -175 0
-40 -175 -257 0
-40 -235 -257 0
-49 -59 -70 0
-49 -59 -140 0
-49 -59 -194 0
-49 -70 -124 0
-49 -70 -214 0
-49 -95 -140 0
-49 -95 -214 0
-49 -124 -140 0
-49 -124 -194 0
-49 -194 -214 0
-59 -140 -157 0
-59 -140 -257 0
-59 -157 -194 0
-59 -194 -257 0
-70 -124 -175 0
-70 -124 -235 0
-70 -175 -214 0
-70 -214 -235 0
-82 -95 -140 0
-82 -95 -175 0
-82 -109 -124 0
-82 -109 -157 0
-82 -124 -140 0
-82 -124 -175 0
-82 -140 -157 0
-82 -157 -175 0
-95 -140 -257 0
-95 -175 -214 0
-95 -175 -257 0
-109 -124 -194 0
-109 -124 -235 0
-109 -157 -194 0
-124 -140 -235 0
-140 -235 -257 0
-157 -175 -214 0
-157 -194 -214 0
-26 -33 -83 -36 -86 0
-26 -33 -96 -36 -99 0
-26 -33 -110 -36 -113 0
-26 -33 -195 -36 -198 0
-26 -33 -215 -36 -218 0
-26 -33 -236 -36 -239 0
-26 -33 -258 -36 -261 0
-26 -41 -60 -44 -63 0
-26 -41 -71 -44 -74 0
-26 -41 -110 -44 -113 0
-26 -41 -158 -44 -161 0
-26 -41 -176 -44 -179 0
-26 -41 -236 -44 -239 0
-26 -41 -258 -44 -261 0
-26 -50 -60 -53 -63 0
-26 -50 -71 -53 -74 0
-26 -50 -96 -53 -99 0
-26 -50 -125 -53 -128 0
-26 -50 -141 -53 -144 0
-26 -50 -195 -53 -198 0
-26 -50 -215 -53 -218 0
-26 -60 -71 -63 -74 0
-26 -60 -141 -63 -144 0
-26 -60 -158 -63 -161 0
-26 -60 -195 -63 -198 0
-26 -60 -258 -63 -261 0
-26 -71 -125 -74 -128 0
-26 -71 -176 -74 -179 0
-26 -71 -215 -74 -218 0
-26 -71 -236 -74 -239 0
-26 -83 -96 -86 -99 0
-26 -83 -110 -86 -113 0
-26 -83 -125 -86 -128 0
-26 -83 -141 -86 -144 0
-26 -83 -158 -86 -161 0
-26 -83 -176 -86 -179 0
-26 -96 -141 -99 -144 0
-26 -96 -176 -99 -179 0
-26 -96 -215 -99 -218 0
-26 -96 -258 -99 -261 0
-26 -110 -125 -113 -128 0
-26 -110 -158 -113 -161 0
-26 -110 -195 -113 -198 0
-26 -110 -236 -113 -239 0
-26 -125 -141 -128 -144 0
-26 -125 -176 -128 -179 0
-26 -125 -195 -128 -198 0
-26 -125 -236 -128 -239 0
-26 -141 -158 -144 -161 0
-26 -141 -236 -144 -239 0
-26 -141 -258 -144 -261 0
-26 -158 -176 -161 -179 0
-26 -158 -195 -161 -198 0
-26 -158 -215 -161 -218 0
-26 -176 -215 -179 -218 0
-26 -176 -258 -179 -261 0
-26 -195 -215 -198 -218 0
-26 -195 -258 -198 -261 0
-26 -215 -236 -218 -239 0
-26 -236 -258 -239 -261 0
-33 -83 -96 0
-33 -83 -110 0
-33 -96 -215 0
-33 -96 -258 0
-33 -110 -195 0
-33 -110 -236 0
-33 -195 -215 0
-33 -195 -258 0
-33 -215 -236 0
-33 -236 -258 0
-41 -60 -71 0
-41 -60 -158 0
-41 -60 -258 0
-41 -71 -176 0
-41 -71 -236 0
-41 -110 -158 0
-41 -110 -236 0
-41 -158 -176 0
-41 -176 -258 0
-41 -236 -258 0
-50 -60 -71 0
-50 -60 -141 0
-50 -60 -195 0
-50 -71 -125 0
-50 -71 -215 0
-50 -96 -141 0
-50 -96 -215 0
-50 -125 -141 0
-50 -125 -195 0
-50 -195 -215 0
-60 -141 -158 0
-60 -141 -258 0
-60 -158 -195 0
-60 -195 -258 0
-71 -125 -176 0
-71 -125 -236 0
-71 -176 -215 0
-71 -215 -236 0
-83 -96 -141 0
-83 -96 -176 0
-83 -110 -125 0
-83 -110 -158 0
-83 -125 -141 0
-83 -125 -176 0
-83 -141 -158 0
-83 -158 -176 0
-96 -141 -258 0
-96 -176 -215 0
-96 -176 -258 0
-110 -125 -195 0
-110 -125 -236 0
-110 -158 -195 0
-125 -141 -236 0
-141 -236 -258 0
-158 -176 -215 0
-158 -195 -215 0
-34 -84 -35 -85 0
-34 -97 -35 -98 0
-34 -111 -35 -112 0
-34 -196 -35 -197 0
-34 -216 -35 -217 0
-34 -237 -35 -238 0
-34 -259 -35 -260 0
-42 -61 -43 -62 0
-42 -72 -43 -73 0
-42 -111 -43 -112 0
-42 -159 -43 -160 0
-42 -177 -43 -178 0
-42 -237 -43 -238 0
-42 -259 -43 -260 0
-51 -61 -52 -62 0
-51 -72 -52 -73 0
-51 -97 -52 -98 0
-51 -126 -52 -127 0
-51 -142 -52 -143 0
-51 -196 -52 -197 0
-51 -216 -52 -217 0
-61 -72 -62 -73 0
-61 -142 -62 -143 0
-61 -159 -62 -160 0
-61 -196 -62 -197 0
-61 -259 -62 -260 0
-72 -126 -73 -127 0
-72 -177 -73 -178 0
-72 -216 -73 -217 0
-72 -237 -73 -238 0
-84 -97 -85 -98 0
-84 -111 -85 -112 0
-84 -126 -85 -127 0
-84 -142 -85 -143 0
-84 -159 -85 -160 0
-84 -177 -85 -178 0
-97 -142 -98 -143 0
-97 -177 -98 -178 0
-97 -216 -98 -217 0
-97 -259 -98 -260 0
-111 -126 -112 -127 0
-111 -159 -112 -160 0
-111 -196 -112 -197 0
-111 -237 -112 -238 0
-126 -142 -127 -143 0
-126 -177 -127 -178 0
-126 -196 -127 -197 0
-126 -237 -127 -238 0
-142 -159 -143 -160 0
-142 -237 -143 -238 0
-142 -259 -143 -260 0
-159 -177 -160 -178 0
-159 -196 -160 -197 0
-159 -216 -160 -217 0
-177 -216 -178 -217 0
-177 -259 -178 -260 0
-196 -216 -197 -217 0
-196 -259 -197 -260 0
-216 -237 -217 -238 0
-237 -259 -238 -260 0
-34 -84 -97 0
-34 -84 -111 0
-34 -97 -216 0
-34 -97 -259 0
-34 -111 -196 0
-34 -111 -237 0
-34 -196 -216 0
-34 -196 -259 0
-34 -216 -237 0
-34 -237 -259 0
-42 -61 -72 0
-42 -61 -159 0
-42 -61 -259 0
-42 -72 -177 0
-42 -72 -237 0
-42 -111 -159 0
-42 -111 -237 0
-42 -159 -177 0
-42 -177 -259 0
-42 -237 -259 0
-51 -61 -72 0
-51 -61 -142 0
-51 -61 -196 0
-51 -72 -126 0
-51 -72 -216 0
-51 -97 -142 0
-51 -97 -216 0
-51 -126 -142 0
-51 -126 -196 0
-51 -196 -216 0
-61 -142 -159 0
-61 -142 -259 0
-61 -159 -196 0
-61 -196 -259 0
-72 -126 -177 0
-72 -126 -237 0
-72 -177 -216 0
-72 -216 -237 0
-84 -97 -142 0
-84 -97 -177 0
-84 -111 -126 0
-84 -111 -159 0
-84 -126 -142 0
-84 -126 -177 0
-84 -142 -159 0
-84 -159 -177 0
-97 -142 -259 0
-97 -177 -216 0
-97 -177 -259 0
-111 -126 -196 0
-111 -126 -237 0
-111 -159 -196 0
-126 -142 -237 0
-142 -237 -259 0
-159 -177 -216 0
-159 -196 -216 0
-28 -35 -85 -36 -86 0
-28 -35 -98 -36 -99 0
-28 -35 -112 -36 -113 0
-28 -35 -197 -36 -198 0
-28 -35 -217 -36 -218 0
-28 -35 -238 -36 -239 0
-28 -35 -260 -36 -261 0
-28 -43 -62 -44 -63 0
-28 -43 -73 -44 -74 0
-28 -43 -112 -44 -113 0
-28 -43 -160 -44 -161 0
-28 -43 -178 -44 -179 0
-28 -43 -238 -44 -239 0
-28 -43 -260 -44 -261 0
-28 -52 -62 -53 -63 0
-28 -52 -73 -53 -74 0
-28 -52 -98 -53 -99 0
-28 -52 -127 -53 -128 0
-28 -52 -143 -53 -144 0
-28 -52 -197 -53 -198 0
-28 -52 -217 -53 -218 0
-28 -62 -73 -63 -74 0
-28 -62 -143 -63 -144 0
-28 -62 -160 -63 -161 0
-28 -62 -197 -63 -198 0
-28 -62 -260 -63 -261 0
-28 -73 -127 -74 -128 0
-28 -73 -178 -74 -179 0
-28 -73 -217 -74 -218 0
-28 -73 -238 -74 -239 0
-28 -85 -98 -86 -99 0
-28 -85 -112 -86 -113 0
-28 -85 -127 -86 -128 0
-28 -85 -143 -86 -144 0
-28 -85 -160 -86 -161 0
-28 -85 -178 -86 -179 0
-28 -98 -143 -99 -144 0
-28 -98 -178 -99 -179 0
-28 -98 -217 -99 -218 0
-28 -98 -260 -99 -261 0
-28 -112 -127 -113 -128 0
-28 -112 -160 -113 -161 0
-28 -112 -197 -113 -198 0
-28 -112 -238 -113 -239 0
-28 -127 -143 -128 -144 0
-28 -127 -178 -128 -179 0
-28 -127 -197 -128 -198 0
-28 -127 -238 -128 -239 0
-28 -143 -160 -144 -161 0
-28 -143 -238 -144 -239 0
-28 -143 -260 -144 -261 0
-28 -160 -178 -161 -179 0
-28 -160 -197 -161 -198 0
-28 -160 -217 -161 -218 0
-28 -178 -217 -179 -218 0
-28 -178 -260 -179 -261 0
-28 -197 -217 -198 -218 0
-28 -197 -260 -198 -261 0
-28 -217 -238 -218 -239 0
-28 -238 -260 -239 -261 0
-35 -85 -98 0
-35 -85 -112 0
-35 -98 -217 0
-35 -98 -260 0
-35 -112 -197 0
-35 -112 -238 0
-35 -197 -217 0
-35 -197 -260 0
-35 -217 -238 0
-35 -238 -260 0
-43 -62 -73 0
-43 -62 -160 0
-43 -62 -260 0
-43 -73 -178 0
-43 -73 -238 0
-43 -112 -160 0
-43 -112 -238 0
-43 -160 -178 0
-43 -178 -260 0
-43 -238 -260 0
-52 -62 -73 0
-52 -62 -143 0
-52 -62 -197 0
-52 -73 -127 0
-52 -73 -217 0
-52 -98 -143 0
-52 -98 -217 0
-52 -127 -143 0
-52 -127 -197 0
-52 -197 -217 0
-62 -143 -160 0
-62 -143 -260 0
-62 -160 -197 0
-62 -197 -260 0
-73 -127 -178 0
-73 -127 -238 0
-73 -178 -217 0
-73 -217 -238 0
-85 -98 -143 0
-85 -98 -178 0
-85 -112 -127 0
-85 -112 -160 0
-85 -127 -143 0
-85 -127 -178 0
-85 -143 -160 0
-85 -160 -178 0
-98 -143 -260 0
-98 -178 -217 0
-98 -178 -260 0
-112 -127 -197 0
-112 -127 -238 0
-112 -160 -197 0
-127 -143 -238 0
-143 -238 -260 0
-160 -178 -217 0
-160 -197 -217 0
-36 -86 -99 0
-36 -86 -113 0
-36 -99 -218 0
-36 -99 -261 0
-36 -113 -198 0
-36 -113 -239 0
-36 -198 -218 0
-36 -198 -261 0
-36 -218 -239 0
-36 -239 -261 0
-44 -63 -74 0
-44 -63 -161 0
-44 -63 -261 0
-44 -74 -179 0
-44 -74 -239 0
-44 -113 -161 0
-44 -113 -239 0
-44 -161 -179 0
-44 -179 -261 0
-44 -239 -261 0
-53 -63 -74 0
-53 -63 -144 0
-53 -63 -198 0
-53 -74 -128 0
-53 -74 -218 0
-53 -99 -144 0
-53 -99 -218 0
-53 -128 -144 0
-53 -128 -198 0
-53 -198 -218 0
-63 -144 -161 0
-63 -144 -261 0
-63 -161 -198 0
-63 -198 -261 0
-74 -128 -179 0
-74 -128 -239 0
-74 -179 -218 0
-74 -218 -239 0
-86 -99 -144 0
-86 -99 -179 0
-86 -113 -128 0
-86 -113 -161 0
-86 -128 -144 0
-86 -128 -179 0
-86 -144 -161 0
-86 -161 -179 0
-99 -144 -261 0
-99 -179 -218 0
-99 -179 -261 0
-113 -128 -198 0
-113 -128 -239 0
-113 -161 -198 0
-128 -144 -239 0
-144 -239 -261 0
-161 -179 -218 0
-161 -198 -218 0
29 30 6 31 32 0
37 38 6 39 40 0
46 47 6 48 49 0
56 57 6 58 59 0
67 68 6 69 70 0
79 80 6 81 82 0
92 93 6 94 95 0
106 107 6 108 109 0
121 122 6 123 124 0
137 138 6 139 140 0
154 155 6 156 157 0
172 173 6 174 175 0
191 192 6 193 194 0
211 212 6 213 214 0
232 233 6 234 235 0
254 255 6 256 257 0
29 30 31 35 0
37 38 39 43 0
46 47 48 52 0
56 57 58 62 0
67 68 69 73 0
79 80 81 85 0
92 93 94 98 0
106 107 108 112 0
121 122 123 127 0
137 138 139 143 0
154 155 156 160 0
172 173 174 178 0
191 192 193 197 0
211 212 213 217 0
232 233 234 238 0
254 255 256 260 0
29 37 30 38 31 39 0
29 46 30 47 31 48 0
29 56 30 57 31 58 0
29 67 30 68 31 69 0
29 121 30 122 31 123 0
29 137 30 138 31 139 0
29 154 30 155 31 156 0
29 172 30 173 31 174 0
37 46 38 47 39 48 0
37 79 38 80 39 81 0
37 92 38 93 39 94 0
37 121 38 122 39 123 0
37 137 38 138 39 139 0
37 191 38 192 39 193 0
37 211 38 212 39 213 0
46 79 47 80 48 81 0
46 106 47 107 48 108 0
46 154 47 155 48 156 0
46 172 47 173 48 174 0
46 232 47 233 48 234 0
46 254 47 255 48 256 0
56 79 57 80 58 81 0
56 92 57 93 58 94 0
56 106 57 107 58 108 0
56 121 57 122 58 123 0
56 172 57 173 58 174 0
56 211 57 212 58 213 0
56 232 57 233 58 234 0
67 79 68 80 69 81 0
67 92 68 93 69 94 0
67 106 68 107 69 108 0
67 137 68 138 69 139 0
67 154 68 155 69 156 0
67 191 68 192 69 193 0
67 254 68 255 69 256 0
79 191 80 192 81 193 0
79 211 80 212 81 213 0
79 232 80 233 81 234 0
79 254 80 255 81 256 0
92 106 93 107 94 108 0
92 121 93 122 94 123 0
92 154 93 155 94 156 0
92 191 93 192 94 193 0
92 232 93 233 94 234 0
106 137 107 138 108 139 0
106 172 107 173 108 174 0
106 211 107 212 108 213 0
106 254 107 255 108 256 0
121 154 122 155 123 156 0
121 211 122 212 123 213 0
121 254 122 255 123 256 0
137 172 138 173 139 174 0
137 191 138 192 139 193 0
137 211 138 212 139 213 0
154 232 155 233 156 234 0
154 254 155 255 156 256 0
172 191 173 192 174 193 0
172 232 173 233 174 234 0
191 232 192 233 193 234 0
211 254 212 255 213 256 0
22 29 30 32 36 0
22 37 38 40 44 0
22 46 47 49 53 0
22 56 57 59 63 0
22 67 68 70 74 0
22 79 80 82 86 0
22 92 93 95 99 0
22 106 107 109 113 0
22 121 122 124 128 0
22 137 138 140 144 0
22 154 155 157 161 0
22 172 173 175 179 0
22 191 192 194 198 0
22 211 212 214 218 0
22 232 233 235 239 0
22 254 255 257 261 0
29 37 30 38 32 40 0
29 46 30 47 32 49 0
29 56 30 57 32 59 0
29 67 30 68 32 70 0
29 121 30 122 32 124 0
29 137 30 138 32 140 0
29 154 30 155 32 157 0
29 172 30 173 32 175 0
37 46 38 47 40 49 0
37 79 38 80 40 82 0
37 92 38 93 40 95 0
37 121 38 122 40 124 0
37 137 38 138 40 140 0
37 191 38 192 40 194 0
37 211 38 212 40 214 0
46 79 47 80 49 82 0
46 106 47 107 49 109 0
46 154 47 155 49 157 0
46 172 47 173 49 175 0
46 232 47 233 49 235 0
46 254 47 255 49 257 0
56 79 57 80 59 82 0
56 92 57 93 59 95 0
56 106 57 107 59 109 0
56 121 57 122 59 124 0
56 172 57 173 59 175 0
56 211 57 212 59 214 0
56 232 57 233 59 235 0
67 79 68 80 70 82 0
67 92 68 93 70 95 0
67 106 68 107 70 109 0
67 137 68 138 70 140 0
67 154 68 155 70 157 0
67 191 68 192 70 194 0
67 254 68 255 70 257 0
79 191 80 192 82 194 0
79 211 80 212 82 214 0
79 232 80 233 82 235 0
79 254 80 255 82 257 0
92 106 93 107 95 109 0
92 121 93 122 95 124 0
92 154 93 155 95 157 0
92 191 93 192 95 194 0
92 232 93 233 95 235 0
106 137 107 138 109 140 0
106 172 107 173 109 175 0
106 211 107 212 109 214 0
106 254 107 255 109 257 0
121 154 122 155 124 157 0
121 211 122 212 124 214 0
121 254 122 255 124 257 0
137 172 138 173 140 175 0
137 191 138 192 140 194 0
137 211 138 212 140 214 0
154 232 155 233 157 235 0
154 254 155 255 157 257 0
172 191 173 192 175 194 0
172 232 173 233 175 235 0
191 232 192 233 194 235 0
211 254 212 255 214 257 0
22 29 30 28 35 36 0
22 37 38 28 43 44 0
22 46 47 28 52 53 0
22 56 57 28 62 63 0
22 67 68 28 73 74 0
22 79 80 28 85 86 0
22 92 93 28 98 99 0
22 106 107 28 112 113 0
22 121 122 28 127 128 0
22 137 138 28 143 144 0
22 154 155 28 160 161 0
22 172 173 28 178 179 0
22 191 192 28 197 198 0
22 211 212 28 217 218 0
22 232 233 28 238 239 0
22 254 255 28 260 261 0
29 37 30 38 35 43 0
29 46 30 47 35 52 0
29 56 30 57 35 62 0
29 67 30 68 35 73 0
29 121 30 122 35 127 0
29 137 30 138 35 143 0
29 154 30 155 35 160 0
29 172 30 173 35 178 0
37 46 38 47 43 52 0
37 79 38 80 43 85 0
37 92 38 93 43 98 0
37 121 38 122 43 127 0
37 137 38 138 43 143 0
37 191 38 192 43 197 0
37 211 38 212 43 217 0
46 79 47 80 52 85 0
46 106 47 107 52 112 0
46 154 47 155 52 160 0
46 172 47 173 52 178 0
46 232 47 233 52 238 0
46 254 47 255 52 260 0
56 79 57 80 62 85 0
56 92 57 93 62 98 0
56 106 57 107 62 112 0
56 121 57 122 62 127 0
56 172 57 173 62 178 0
56 211 57 212 62 217 0
56 232 57 233 62 238 0
67 79 68 80 73 85 0
67 92 68 93 73 98 0
67 106 68 107 73 112 0
67 137 68 138 73 143 0
67 154 68 155 73 160 0
67 191 68 192 73 197 0
67 254 68 255 73 260 0
79 191 80 192 85 197 0
79 211 80 212 85 217 0
79 232 80 233 85 238 0
79 254 80 255 85 260 0
92 106 93 107 98 112 0
92 121 93 122 98 127 0
92 154 93 155 98 160 0
92 191 93 192 98 197 0
92 232 93 233 98 238 0
106 137 107 138 112 143 0
106 172 107 173 112 178 0
106 211 107 212 112 217 0
106 254 107 255 112 260 0
121 154 122 155 127 160 0
121 211 122 212 127 217 0
121 254 122 255 127 260 0
137 172 138 173 143 178 0
137 191 138 192 143 197 0
137 211 138 212 143 217 0
154 232 155 233 160 238 0
154 254 155 255 160 260 0
172 191 173 192 178 197 0
172 232 173 233 178 238 0
191 232 192 233 197 238 0
211 254 212 255 217 260 0
22 29 37 30 38 36 44 0
22 29 46 30 47 36 53 0
22 29 56 30 57 36 63 0
22 29 67 30 68 36 74 0
22 29 121 30 122 36 128 0
22 29 137 30 138 36 144 0
22 29 154 30 155 36 161 0
22 29 172 30 173 36 179 0
22 37 46 38 47 44 53 0
22 37 79 38 80 44 86 0
22 37 92 38 93 44 99 0
22 37 121 38 122 44 128 0
22 37 137 38 138 44 144 0
22 37 191 38 192 44 198 0
22 37 211 38 212 44 218 0
22 46 79 47 80 53 86 0
22 46 106 47 107 53 113 0
22 46 154 47 155 53 161 0
22 46 172 47 173 53 179 0
22 46 232 47 233 53 239 0
22 46 254 47 255 53 261 0
22 56 79 57 80 63 86 0
22 56 92 57 93 63 99 0
22 56 106 57 107 63 113 0
22 56 121 57 122 63 128 0
22 56 172 57 173 63 179 0
22 56 211 57 212 63 218 0
22 56 232 57 233 63 239 0
22 67 79 68 80 74 86 0
22 67 92 68 93 74 99 0
22 67 106 68 107 74 113 0
22 67 137 68 138 74 144 0
22 67 154 68 155 74 161 0
22 67 191 68 192 74 198 0
22 67 254 68 255 74 261 0
22 79 191 80 192 86 198 0
22 79 211 80 212 86 218 0
22 79 232 80 233 86 239 0
22 79 254 80 255 86 261 0
22 92 106 93 107 99 113 0
22 92 121 93 122 99 128 0
22 92 154 93 155 99 161 0
22 92 191 93 192 99 198 0
22 92 232 93 233 99 239 0
22 106 137 107 138 113 144 0
22 106 172 107 173 113 179 0
22 106 211 107 212 113 218 0
22 106 254 107 255 113 261 0
22 121 154 122 155 128 161 0
22 121 211 122 212 128 218 0
22 121 254 122 255 128 261 0
22 137 172 138 173 144 179 0
22 137 191 138 192 144 198 0
22 137 211 138 212 144 218 0
22 154 232 155 233 161 239 0
22 154 254 155 255 161 261 0
22 172 191 173 192 179 198 0
22 172 232 173 233 179 239 0
22 191 232 192 233 198 239 0
22 211 254 212 255 218 261 0
29 37 46 30 38 47 0
29 37 121 30 38 122 0
29 37 137 30 38 138 0
29 46 154 30 47 155 0
29 46 172 30 47 173 0
29 56 121 30 57 122 0
29 56 172 30 57 173 0
29 67 137 30 68 138 0
29 67 154 30 68 155 0
29 121 154 30 122 155 0
29 137 172 30 138 173 0
37 46 79 38 47 80 0
37 79 191 38 80 192 0
37 79 211 38 80 212 0
37 92 121 38 93 122 0
37 92 191 38 93 192 0
37 121 211 38 122 212 0
37 137 191 38 138 192 0
37 137 211 38 138 212 0
46 79 232 47 80 233 0
46 79 254 47 80 255 0
46 106 172 47 107 173 0
46 106 254 47 107 255 0
46 154 232 47 155 233 0
46 154 254 47 155 255 0
46 172 232 47 173 233 0
56 79 211 57 80 212 0
56 79 232 57 80 233 0
56 92 106 57 93 107 0
56 92 121 57 93 122 0
56 92 232 57 93 233 0
56 106 172 57 107 173 0
56 106 211 57 107 212 0
56 121 211 57 122 212 0
56 172 232 57 173 233 0
67 79 191 68 80 192 0
67 79 254 68 80 255 0
67 92 106 68 93 107 0
67 92 154 68 93 155 0
67 92 191 68 93 192 0
67 106 137 68 107 138 0
67 106 254 68 107 255 0
67 137 191 68 138 192 0
67 154 254 68 155 255 0
79 191 232 80 192 233 0
79 211 254 80 212 255 0
92 121 154 93 122 155 0
92 154 232 93 155 233 0
92 191 232 93 192 233 0
106 137 172 107 138 173 0
106 137 211 107 138 212 0
106 211 254 107 212 255 0
121 154 254 122 155 255 0
121 211 254 122 212 255 0
137 172 191 138 173 192 0
172 191 232 173 192 233 0
29 6 31 32 33 0
37 6 39 40 41 0
46 6 48 49 50 0
56 6 58 59 60 0
67 6 69 70 71 0
79 6 81 82 83 0
92 6 94 95 96 0
106 6 108 109 110 0
121 6 123 124 125 0
137 6 139 140 141 0
154 6 156 157 158 0
172 6 174 175 176 0
191 6 193 194 195 0
211 6 213 214 215 0
232 6 234 235 236 0
254 6 256 257 258 0
29 37 6 31 39 32 40 0
29 46 6 31 48 32 49 0
29 56 6 31 58 32 59 0
29 67 6 31 69 32 70 0
29 121 6 31 123 32 124 0
29 137 6 31 139 32 140 0
29 154 6 31 156 32 157 0
29 172 6 31 174 32 175 0
37 46 6 39 48 40 49 0
37 79 6 39 81 40 82 0
37 92 6 39 94 40 95 0
37 121 6 39 123 40 124 0
37 137 6 39 139 40 140 0
37 191 6 39 193 40 194 0
37 211 6 39 213 40 214 0
46 79 6 48 81 49 82 0
46 106 6 48 108 49 109 0
46 154 6 48 156 49 157 0
46 172 6 48 174 49 175 0
46 232 6 48 234 49 235 0
46 254 6 48 256 49 257 0
56 79 6 58 81 59 82 0
56 92 6 58 94 59 95 0
56 106 6 58 108 59 109 0
56 121 6 58 123 59 124 0
56 172 6 58 174 59 175 0
56 211 6 58 213 59 214 0
56 232 6 58 234 59 235 0
67 79 6 69 81 70 82 0
67 92 6 69 94 70 95 0
67 106 6 69 108 70 109 0
67 137 6 69 139 70 140 0
67 154 6 69 156 70 157 0
67 191 6 69 193 70 194 0
67 254 6 69 256 70 257 0
79 191 6 81 193 82 194 0
79 211 6 81 213 82 214 0
79 232 6 81 234 82 235 0
79 254 6 81 256 82 257 0
92 106 6 94 108 95 109 0
92 121 6 94 123 95 124 0
92 154 6 94 156 95 157 0
92 191 6 94 193 95 194 0
92 232 6 94 234 95 235 0
106 137 6 108 139 109 140 0
106 172 6 108 174 109 175 0
106 211 6 108 213 109 214 0
106 254 6 108 256 109 257 0
121 154 6 123 156 124 157 0
121 211 6 123 213 124 214 0
121 254 6 123 256 124 257 0
137 172 6 139 174 140 175 0
137 191 6 139 193 140 194 0
137 211 6 139 213 140 214 0
154 232 6 156 234 157 235 0
154 254 6 156 256 157 257 0
172 191 6 174 193 175 194 0
172 232 6 174 234 175 235 0
191 232 6 193 234 194 235 0
211 254 6 213 256 214 257 0
29 31 33 35 0
37 39 41 43 0
46 48 50 52 0
56 58 60 62 0
67 69 71 73 0
79 81 83 85 0
92 94 96 98 0
106 108 110 112 0
121 123 125 127 0
137 139 141 143 0
154 156 158 160 0
172 174 176 178 0
191 193 195 197 0
211 213 215 217 0
232 234 236 238 0
254 256 258 260 0
29 37 31 39 33 41 0
29 46 31 48 33 50 0
29 56 31 58 33 60 0
29 67 31 69 33 71 0
29 121 31 123 33 125 0
29 137 31 139 33 141 0
29 154 31 156 33 158 0
29 172 31 174 33 176 0
37 46 39 48 41 50 0
37 79 39 81 41 83 0
37 92 39 94 41 96 0
37 121 39 123 41 125 0
37 137 39 139 41 141 0
37 191 39 193 41 195 0
37 211 39 213 41 215 0
46 79 48 81 50 83 0
46 106 48 108 50 110 0
46 154 48 156 50 158 0
46 172 48 174 50 176 0
46 232 48 234 50 236 0
46 254 48 256 50 258 0
56 79 58 81 60 83 0
56 92 58 94 60 96 0
56 106 58 108 60 110 0
56 121 58 123 60 125 0
56 172 58 174 60 176 0
56 211 58 213 60 215 0
56 232 58 234 60 236 0
67 79 69 81 71 83 0
67 92 69 94 71 96 0
67 106 69 108 71 110 0
67 137 69 139 71 141 0
67 154 69 156 71 158 0
67 191 69 193 71 195 0
67 254 69 256 71 258 0
79 191 81 193 83 195 0
79 211 81 213 83 215 0
79 232 81 234 83 236 0
79 254 81 256 83 258 0
92 106 94 108 96 110 0
92 121 94 123 96 125 0
92 154 94 156 96 158 0
92 191 94 193 96 195 0
92 232 94 234 96 236 0
106 137 108 139 110 141 0
106 172 108 174 110 176 0
106 211 108 213 110 215 0
106 254 108 256 110 258 0
121 154 123 156 125 158 0
121 211 123 213 125 215 0
121 254 123 256 125 258 0
137 172 139 174 141 176 0
137 191 139 193 141 195 0
137 211 139 213 141 215 0
154 232 156 234 158 236 0
154 254 156 256 158 258 0
172 191 174 193 176 195 0
172 232 174 234 176 236 0
191 232 193 234 195 236 0
211 254 213 256 215 258 0
29 37 31 39 35 43 0
29 46 31 48 35 52 0
29 56 31 58 35 62 0
29 67 31 69 35 73 0
29 121 31 123 35 127 0
29 137 31 139 35 143 0
29 154 31 156 35 160 0
29 172 31 174 35 178 0
37 46 39 48 43 52 0
37 79 39 81 43 85 0
37 92 39 94 43 98 0
37 121 39 123 43 127 0
37 137 39 139 43 143 0
37 191 39 193 43 197 0
37 211 39 213 43 217 0
46 79 48 81 52 85 0
46 106 48 108 52 112 0
46 154 48 156 52 160 0
46 172 48 174 52 178 0
46 232 48 234 52 238 0
46 254 48 256 52 260 0
56 79 58 81 62 85 0
56 92 58 94 62 98 0
56 106 58 108 62 112 0
56 121 58 123 62 127 0
56 172 58 174 62 178 0
56 211 58 213 62 217 0
56 232 58 234 62 238 0
67 79 69 81 73 85 0
67 92 69 94 73 98 0
67 106 69 108 73 112 0
67 137 69 139 73 143 0
67 154 69 156 73 160 0
67 191 69 193 73 197 0
67 254 69 256 73 260 0
79 191 81 193 85 197 0
79 211 81 213 85 217 0
79 232 81 234 85 238 0
79 254 81 256 85 260 0
92 106 94 108 98 112 0
92 121 94 123 98 127 0
92 154 94 156 98 160 0
92 191 94 193 98 197 0
92 232 94 234 98 238 0
106 137 108 139 112 143 0
106 172 108 174 112 178 0
106 211 108 213 112 217 0
106 254 108 256 112 260 0
121 154 123 156 127 160 0
121 211 123 213 127 217 0
121 254 123 256 127 260 0
137 172 139 174 143 178 0
137 191 139 193 143 197 0
137 211 139 213 143 217 0
154 232 156 234 160 238 0
154 254 156 256 160 260 0
172 191 174 193 178 197 0
172 232 174 234 178 238 0
191 232 193 234 197 238 0
211 254 213 256 217 260 0
29 37 46 31 39 48 0
29 37 121 31 39 123 0
29 37 137 31 39 139 0
29 46 154 31 48 156 0
29 46 172 31 48 174 0
29 56 121 31 58 123 0
29 56 172 31 58 174 0
29 67 137 31 69 139 0
29 67 154 31 69 156 0
29 121 154 31 123 156 0
29 137 172 31 139 174 0
37 46 79 39 48 81 0
37 79 191 39 81 193 0
37 79 211 39 81 213 0
37 92 121 39 94 123 0
37 92 191 39 94 193 0
37 121 211 39 123 213 0
37 137 191 39 139 193 0
37 137 211 39 139 213 0
46 79 232 48 81 234 0
46 79 254 48 81 256 0
46 106 172 48 108 174 0
46 106 254 48 108 256 0
46 154 232 48 156 234 0
46 154 254 48 156 256 0
46 172 232 48 174 234 0
56 79 211 58 81 213 0
56 79 232 58 81 234 0
56 92 106 58 94 108 0
56 92 121 58 94 123 0
56 92 232 58 94 234 0
56 106 172 58 108 174 0
56 106 211 58 108 213 0
56 121 211 58 123 213 0
56 172 232 58 174 234 0
67 79 191 69 81 193 0
67 79 254 69 81 256 0
67 92 106 69 94 108 0
67 92 154 69 94 156 0
67 92 191 69 94 193 0
67 106 137 69 108 139 0
67 106 254 69 108 256 0
67 137 191 69 139 193 0
67 154 254 69 156 256 0
79 191 232 81 193 234 0
79 211 254 81 213 256 0
92 121 154 94 123 156 0
92 154 232 94 156 234 0
92 191 232 94 193 234 0
106 137 172 108 139 174 0
106 137 211 108 139 213 0
106 211 254 108 213 256 0
121 154 254 123 156 256 0
121 211 254 123 213 256 0
137 172 191 139 174 193 0
172 191 232 174 193 234 0
22 29 32 26 33 36 0
22 37 40 26 41 44 0
22 46 49 26 50 53 0
22 56 59 26 60 63 0
22 67 70 26 71 74 0
22 79 82 26 83 86 0
22 92 95 26 96 99 0
22 106 109 26 110 113 0
22 121 124 26 125 128 0
22 137 140 26 141 144 0
22 154 157 26 158 161 0
22 172 175 26 176 179 0
22 191 194 26 195 198 0
22 211 214 26 215 218 0
22 232 235 26 236 239 0
22 254 257 26 258 261 0
29 37 32 40 33 41 0
29 46 32 49 33 50 0
29 56 32 59 33 60 0
29 67 32 70 33 71 0
29 121 32 124 33 125 0
29 137 32 140 33 141 0
29 154 32 157 33 158 0
29 172 32 175 33 176 0
37 46 40 49 41 50 0
37 79 40 82 41 83 0
37 92 40 95 41 96 0
37 121 40 124 41 125 0
37 137 40 140 41 141 0
37 191 40 194 41 195 0
37 211 40 214 41 215 0
46 79 49 82 50 83 0
46 106 49 109 50 110 0
46 154 49 157 50 158 0
46 172 49 175 50 176 0
46 232 49 235 50 236 0
46 254 49 257 50 258 0
56 79 59 82 60 83 0
56 92 59 95 60 96 0
56 106 59 109 60 110 0
56 121 59 124 60 125 0
56 172 59 175 60 176 0
56 211 59 214 60 215 0
56 232 59 235 60 236 0
67 79 70 82 71 83 0
67 92 70 95 71 96 0
67 106 70 109 71 110 0
67 137 70 140 71 141 0
67 154 70 157 71 158 0
67 191 70 194 71 195 0
67 254 70 257 71 258 0
79 191 82 194 83 195 0
79 211 82 214 83 215 0
79 232 82 235 83 236 0
79 254 82 257 83 258 0
92 106 95 109 96 110 0
92 121 95 124 96 125 0
92 154 95 157 96 158 0
92 191 95 194 96 195 0
92 232 95 235 96 236 0
106 137 109 140 110 141 0
106 172 109 175 110 176 0
106 211 109 214 110 215 0
106 254 109 257 110 258 0
121 154 124 157 125 158 0
121 211 124 214 125 215 0
121 254 124 257 125 258 0
137 172 140 175 141 176 0
137 191 140 194 141 195 0
137 211 140 214 141 215 0
154 232 157 235 158 236 0
154 254 157 257 158 258 0
172 191 175 194 176 195 0
172 232 175 235 176 236 0
191 232 194 235 195 236 0
211 254 214 257 215 258 0
22 29 37 32 40 36 44 0
22 29 46 32 49 36 53 0
22 29 56 32 59 36 63 0
22 29 67 32 70 36 74 0
22 29 121 32 124 36 128 0
22 29 137 32 140 36 144 0
22 29 154 32 157 36 161 0
22 29 172 32 175 36 179 0
22 37 46 40 49 44 53 0
22 37 79 40 82 44 86 0
22 37 92 40 95 44 99 0
22 37 121 40 124 44 128 0
22 37 137 40 140 44 144 0
22 37 191 40 194 44 198 0
22 37 211 40 214 44 218 0
22 46 79 49 82 53 86 0
22 46 106 49 109 53 113 0
22 46 154 49 157 53 161 0
22 46 172 49 175 53 179 0
22 46 232 49 235 53 239 0
22 46 254 49 257 53 261 0
22 56 79 59 82 63 86 0
22 56 92 59 95 63 99 0
22 56 106 59 109 63 113 0
22 56 121 59 124 63 128 0
22 56 172 59 175 63 179 0
22 56 211 59 214 63 218 0
22 56 232 59 235 63 239 0
22 67 79 70 82 74 86 0
22 67 92 70 95 74 99 0
22 67 106 70 109 74 113 0
22 67 137 70 140 74 144 0
22 67 154 70 157 74 161 0
22 67 191 70 194 74 198 0
22 67 254 70 257 74 261 0
22 79 191 82 194 86 198 0
22 79 211 82 214 86 218 0
22 79 232 82 235 86 239 0
22 79 254 82 257 86 261 0
22 92 106 95 109 99 113 0
22 92 121 95 124 99 128 0
22 92 154 95 157 99 161 0
22 92 191 95 194 99 198 0
22 92 232 95 235 99 239 0
22 106 137 109 140 113 144 0
22 106 172 109 175 113 179 0
22 106 211 109 214 113 218 0
22 106 254 109 257 113 261 0
22 121 154 124 157 128 161 0
22 121 211 124 214 128 218 0
22 121 254 124 257 128 261 0
22 137 172 140 175 144 179 0
22 137 191 140 194 144 198 0
22 137 211 140 214 144 218 0
22 154 232 157 235 161 239 0
22 154 254 157 257 161 261 0
22 172 191 175 194 179 198 0
22 172 232 175 235 179 239 0
22 191 232 194 235 198 239 0
22 211 254 214 257 218 261 0
29 37 46 32 40 49 0
29 37 121 32 40 124 0
29 37 137 32 40 140 0
29 46 154 32 49 157 0
29 46 172 32 49 175 0
29 56 121 32 59 124 0
29 56 172 32 59 175 0
29 67 137 32 70 140 0
29 67 154 32 70 157 0
29 121 154 32 124 157 0
29 137 172 32 140 175 0
37 46 79 40 49 82 0
37 79 191 40 82 194 0
37 79 211 40 82 214 0
37 92 121 40 95 124 0
37 92 191 40 95 194 0
37 121 211 40 124 214 0
37 137 191 40 140 194 0
37 137 211 40 140 214 0
46 79 232 49 82 235 0
46 79 254 49 82 257 0
46 106 172 49 109 175 0
46 106 254 49 109 257 0
46 154 232 49 157 235 0
46 154 254 49 157 257 0
46 172 232 49 175 235 0
56 79 211 59 82 214 0
56 79 232 59 82 235 0
56 92 106 59 95 109 0
56 92 121 59 95 124 0
56 92 232 59 95 235 0
56 106 172 59 109 175 0
56 106 211 59 109 214 0
56 121 211 59 124 214 0
56 172 232 59 175 235 0
67 79 191 70 82 194 0
67 79 254 70 82 257 0
67 92 106 70 95 109 0
67 92 154 70 95 157 0
67 92 191 70 95 194 0
67 106 137 70 109 140 0
67 106 254 70 109 257 0
67 137 191 70 140 194 0
67 154 254 70 157 257 0
79 191 232 82 194 235 0
79 211 254 82 214 257 0
92 121 154 95 124 157 0
92 154 232 95 157 235 0
92 191 232 95 194 235 0
106 137 172 109 140 175 0
106 137 211 109 140 214 0
106 211 254 109 214 257 0
121 154 254 124 157 257 0
121 211 254 124 214 257 0
137 172 191 140 175 194 0
172 191 232 175 194 235 0
22 29 26 33 28 35 36 0
22 37 26 41 28 43 44 0
22 46 26 50 28 52 53 0
22 56 26 60 28 62 63 0
22 67 26 71 28 73 74 0
22 79 26 83 28 85 86 0
22 92 26 96 28 98 99 0
22 106 26 110 28 112 113 0
22 121 26 125 28 127 128 0
22 137 26 141 28 143 144 0
22 154 26 158 28 160 161 0
22 172 26 176 28 178 179 0
22 191 26 195 28 197 198 0
22 211 26 215 28 217 218 0
22 232 26 236 28 238 239 0
22 254 26 258 28 260 261 0
29 37 33 41 35 43 0
29 46 33 50 35 52 0
29 56 33 60 35 62 0
29 67 33 71 35 73 0
29 121 33 125 35 127 0
29 137 33 141 35 143 0
29 154 33 158 35 160 0
29 172 33 176 35 178 0
37 46 41 50 43 52 0
37 79 41 83 43 85 0
37 92 41 96 43 98 0
37 121 41 125 43 127 0
37 137 41 141 43 143 0
37 191 41 195 43 197 0
37 211 41 215 43 217 0
46 79 50 83 52 85 0
46 106 50 110 52 112 0
46 154 50 158 52 160 0
46 172 50 176 52 178 0
46 232 50 236 52 238 0
46 254 50 258 52 260 0
56 79 60 83 62 85 0
56 92 60 96 62 98 0
56 106 60 110 62 112 0
56 121 60 125 62 127 0
56 172 60 176 62 178 0
56 211 60 215 62 217 0
56 232 60 236 62 238 0
67 79 71 83 73 85 0
67 92 71 96 73 98 0
67 106 71 110 73 112 0
67 137 71 141 73 143 0
67 154 71 158 73 160 0
67 191 71 195 73 197 0
67 254 71 258 73 260 0
79 191 83 195 85 197 0
79 211 83 215 85 217 0
79 232 83 236 85 238 0
79 254 83 258 85 260 0
92 106 96 110 98 112 0
92 121 96 125 98 127 0
92 154 96 158 98 160 0
92 191 96 195 98 197 0
92 232 96 236 98 238 0
106 137 110 141 112 143 0
106 172 110 176 112 178 0
106 211 110 215 112 217 0
106 254 110 258 112 260 0
121 154 125 158 127 160 0
121 211 125 215 127 217 0
121 254 125 258 127 260 0
137 172 141 176 143 178 0
137 191 141 195 143 197 0
137 211 141 215 143 217 0
154 232 158 236 160 238 0
154 254 158 258 160 260 0
172 191 176 195 178 197 0
172 232 176 236 178 238 0
191 232 195 236 197 238 0
211 254 215 258 217 260 0
22 29 37 26 33 41 36 44 0
22 29 46 26 33 50 36 53 0
22 29 56 26 33 60 36 63 0
22 29 67 26 33 71 36 74 0
22 29 121 26 33 125 36 128 0
22 29 137 26 33 141 36 144 0
22 29 154 26 33 158 36 161 0
22 29 172 26 33 176 36 179 0
22 37 46 26 41 50 44 53 0
22 37 79 26 41 83 44 86 0
22 37 92 26 41 96 44 99 0
22 37 121 26 41 125 44 128 0
22 37 137 26 41 141 44 144 0
22 37 191 26 41 195 44 198 0
22 37 211 26 41 215 44 218 0
22 46 79 26 50 83 53 86 0
22 46 106 26 50 110 53 113 0
22 46 154 26 50 158 53 161 0
22 46 172 26 50 176 53 179 0
22 46 232 26 50 236 53 239 0
22 46 254 26 50 258 53 261 0
22 56 79 26 60 83 63 86 0
22 56 92 26 60 96 63 99 0
22 56 106 26 60 110 63 113 0
22 56 121 26 60 125 63 128 0
22 56 172 26 60 176 63 179 0
22 56 211 26 60 215 63 218 0
22 56 232 26 60 236 63 239 0
22 67 79 26 71 83 74 86 0
22 67 92 26 71 96 74 99 0
22 67 106 26 71 110 74 113 0
22 67 137 26 71 141 74 144 0
22 67 154 26 71 158 74 161 0
22 67 191 26 71 195 74 198 0
22 67 254 26 71 258 74 261 0
22 79 191 26 83 195 86 198 0
22 79 211 26 83 215 86 218 0
22 79 232 26 83 236 86 239 0
22 79 254 26 83 258 86 261 0
22 92 106 26 96 110 99 113 0
22 92 121 26 96 125 99 128 0
22 92 154 26 96 158 99 161 0
22 92 191 26 96 195 99 198 0
22 92 232 26 96 236 99 239 0
22 106 137 26 110 141 113 144 0
22 106 172 26 110 176 113 179 0
22 106 211 26 110 215 113 218 0
22 106 254 26 110 258 113 261 0
22 121 154 26 125 158 128 161 0
22 121 211 26 125 215 128 218 0
22 121 254 26 125 258 128 261 0
22 137 172 26 141 176 144 179 0
22 137 191 26 141 195 144 198 0
22 137 211 26 141 215 144 218 0
22 154 232 26 158 236 161 239 0
22 154 254 26 158 258 161 261 0
22 172 191 26 176 195 179 198 0
22 172 232 26 176 236 179 239 0
22 191 232 26 195 236 198 239 0
22 211 254 26 215 258 218 261 0
29 37 46 33 41 50 0
29 37 121 33 41 125 0
29 37 137 33 41 141 0
29 46 154 33 50 158 0
29 46 172 33 50 176 0
29 56 121 33 60 125 0
29 56 172 33 60 176 0
29 67 137 33 71 141 0
29 67 154 33 71 158 0
29 121 154 33 125 158 0
29 137 172 33 141 176 0
37 46 79 41 50 83 0
37 79 191 41 83 195 0
37 79 211 41 83 215 0
37 92 121 41 96 125 0
37 92 191 41 96 195 0
37 121 211 41 125 215 0
37 137 191 41 141 195 0
37 137 211 41 141 215 0
46 79 232 50 83 236 0
46 79 254 50 83 258 0
46 106 172 50 110 176 0
46 106 254 50 110 258 0
46 154 232 50 158 236 0
46 154 254 50 158 258 0
46 172 232 50 176 236 0
56 79 211 60 83 215 0
56 79 232 60 83 236 0
56 92 106 60 96 110 0
56 92 121 60 96 125 0
56 92 232 60 96 236 0
56 106 172 60 110 176 0
56 106 211 60 110 215 0
56 121 211 60 125 215 0
56 172 232 60 176 236 0
67 79 191 71 83 195 0
67 79 254 71 83 258 0
67 92 106 71 96 110 0
67 92 154 71 96 158 0
67 92 191 71 96 195 0
67 106 137 71 110 141 0
67 106 254 71 110 258 0
67 137 191 71 141 195 0
67 154 254 71 158 258 0
79 191 232 83 195 236 0
79 211 254 83 215 258 0
92 121 154 96 125 158 0
92 154 232 96 158 236 0
92 191 232 96 195 236 0
106 137 172 110 141 176 0
106 137 211 110 141 215 0
106 211 254 110 215 258 0
121 154 254 125 158 258 0
121 211 254 125 215 258 0
137 172 191 141 176 195 0
172 191 232 176 195 236 0
22 29 37 28 35 43 36 44 0
22 29 46 28 35 52 36 53 0
22 29 56 28 35 62 36 63 0
22 29 67 28 35 73 36 74 0
22 29 121 28 35 127 36 128 0
22 29 137 28 35 143 36 144 0
22 29 154 28 35 160 36 161 0
22 29 172 28 35 178 36 179 0
22 37 46 28 43 52 44 53 0
22 37 79 28 43 85 44 86 0
22 37 92 28 43 98 44 99 0
22 37 121 28 43 127 44 128 0
22 37 137 28 43 143 44 144 0
22 37 191 28 43 197 44 198 0
22 37 211 28 43 217 44 218 0
22 46 79 28 52 85 53 86 0
22 46 106 28 52 112 53 113 0
22 46 154 28 52 160 53 161 0
22 46 172 28 52 178 53 179 0
22 46 232 28 52 238 53 239 0
22 46 254 28 52 260 53 261 0
22 56 79 28 62 85 63 86 0
22 56 92 28 62 98 63 99 0
22 56 106 28 62 112 63 113 0
22 56 121 28 62 127 63 128 0
22 56 172 28 62 178 63 179 0
22 56 211 28 62 217 63 218 0
22 56 232 28 62 238 63 239 0
22 67 79 28 73 85 74 86 0
22 67 92 28 73 98 74 99 0
22 67 106 28 73 112 74 113 0
22 67 137 28 73 143 74 144 0
22 67 154 28 73 160 74 161 0
22 67 191 28 73 197 74 198 0
22 67 254 28 73 260 74 261 0
22 79 191 28 85 197 86 198 0
22 79 211 28 85 217 86 218 0
22 79 232 28 85 238 86 239 0
22 79 254 28 85 260 86 261 0
22 92 106 28 98 112 99 113 0
22 92 121 28 98 127 99 128 0
22 92 154 28 98 160 99 161 0
22 92 191 28 98 197 99 198 0
22 92 232 28 98 238 99 239 0
22 106 137 28 112 143 113 144 0
22 106 172 28 112 178 113 179 0
22 106 211 28 112 217 113 218 0
22 106 254 28 112 260 113 261 0
22 121 154 28 127 160 128 161 0
22 121 211 28 127 217 128 218 0
22 121 254 28 127 260 128 261 0
22 137 172 28 143 178 144 179 0
22 137 191 28 143 197 144 198 0
22 137 211 28 143 217 144 218 0
22 154 232 28 160 238 161 239 0
22 154 254 28 160 260 161 261 0
22 172 191 28 178 197 179 198 0
22 172 232 28 178 238 179 239 0
22 191 232 28 197 238 198 239 0
22 211 254 28 217 260 218 261 0
29 37 46 35 43 52 0
29 37 121 35 43 127 0
29 37 137 35 43 143 0
29 46 154 35 52 160 0
29 46 172 35 52 178 0
29 56 121 35 62 127 0
29 56 172 35 62 178 0
29 67 137 35 73 143 0
29 67 154 35 73 160 0
29 121 154 35 127 160 0
29 137 172 35 143 178 0
37 46 79 43 52 85 0
37 79 191 43 85 197 0
37 79 211 43 85 217 0
37 92 121 43 98 127 0
37 92 191 43 98 197 0
37 121 211 43 127 217 0
37 137 191 43 143 197 0
37 137 211 43 143 217 0
46 79 232 52 85 238 0
46 79 254 52 85 260 0
46 106 172 52 112 178 0
46 106 254 52 112 260 0
46 154 232 52 160 238 0
46 154 254 52 160 260 0
46 172 232 52 178 238 0
56 79 211 62 85 217 0
56 79 232 62 85 238 0
56 92 106 62 98 112 0
56 92 121 62 98 127 0
56 92 232 62 98 238 0
56 106 172 62 112 178 0
56 106 211 62 112 217 0
56 121 211 62 127 217 0
56 172 232 62 178 238 0
67 79 191 73 85 197 0
67 79 254 73 85 260 0
67 92 106 73 98 112 0
67 92 154 73 98 160 0
67 92 191 73 98 197 0
67 106 137 73 112 143 0
67 106 254 73 112 260 0
67 137 191 73 143 197 0
67 154 254 73 160 260 0
79 191 232 85 197 238 0
79 211 254 85 217 260 0
92 121 154 98 127 160 0
92 154 232 98 160 238 0
92 191 232 98 197 238 0
106 137 172 112 143 178 0
106 137 211 112 143 217 0
106 211 254 112 217 260 0
121 154 254 127 160 260 0
121 211 254 127 217 260 0
137 172 191 143 178 197 0
172 191 232 178 197 238 0
22 29 37 46 36 44 53 0
22 29 37 121 36 44 128 0
22 29 37 137 36 44 144 0
22 29 46 154 36 53 161 0
22 29 46 172 36 53 179 0
22 29 56 121 36 63 128 0
22 29 56 172 36 63 179 0
22 29 67 137 36 74 144 0
22 29 67 154 36 74 161 0
22 29 121 154 36 128 161 0
22 29 137 172 36 144 179 0
22 37 46 79 44 53 86 0
22 37 79 191 44 86 198 0
22 37 79 211 44 86 218 0
22 37 92 121 44 99 128 0
22 37 92 191 44 99 198 0
22 37 121 211 44 128 218 0
22 37 137 191 44 144 198 0
22 37 137 211 44 144 218 0
22 46 79 232 53 86 239 0
22 46 79 254 53 86 261 0
22 46 106 172 53 113 179 0
22 46 106 254 53 113 261 0
22 46 154 232 53 161 239 0
22 46 154 254 53 161 261 0
22 46 172 232 53 179 239 0
22 56 79 211 63 86 218 0
22 56 79 232 63 86 239 0
22 56 92 106 63 99 113 0
22 56 92 121 63 99 128 0
22 56 92 232 63 99 239 0
22 56 106 172 63 113 179 0
22 56 106 211 63 113 218 0
22 56 121 211 63 128 218 0
22 56 172 232 63 179 239 0
22 67 79 191 74 86 198 0
22 67 79 254 74 86 261 0
22 67 92 106 74 99 113 0
22 67 92 154 74 99 161 0
22 67 92 191 74 99 198 0
22 67 106 137 74 113 144 0
22 67 106 254 74 113 261 0
22 67 137 191 74 144 198 0
22 67 154 254 74 161 261 0
22 79 191 232 86 198 239 0
22 79 211 254 86 218 261 0
22 92 121 154 99 128 161 0
22 92 154 232 99 161 239 0
22 92 191 232 99 198 239 0
22 106 137 172 113 144 179 0
22 106 137 211 113 144 218 0
22 106 211 254 113 218 261 0
22 121 154 254 128 161 261 0
22 121 211 254 128 218 261 0
22 137 172 191 144 179 198 0
22 172 191 232 179 198 239 0
30 6 31 32 34 0
38 6 39 40 42 0
47 6 48 49 51 0
57 6 58 59 61 0
68 6 69 70 72 0
80 6 81 82 84 0
93 6 94 95 97 0
107 6 108 109 111 0
122 6 123 124 126 0
138 6 139 140 142 0
155 6 156 157 159 0
173 6 174 175 177 0
192 6 193 194 196 0
212 6 213 214 216 0
233 6 234 235 237 0
255 6 256 257 259 0
30 38 6 31 39 32 40 0
30 47 6 31 48 32 49 0
30 57 6 31 58 32 59 0
30 68 6 31 69 32 70 0
30 122 6 31 123 32 124 0
30 138 6 31 139 32 140 0
30 155 6 31 156 32 157 0
30 173 6 31 174 32 175 0
38 47 6 39 48 40 49 0
38 80 6 39 81 40 82 0
38 93 6 39 94 40 95 0
38 122 6 39 123 40 124 0
38 138 6 39 139 40 140 0
38 192 6 39 193 40 194 0
38 212 6 39 213 40 214 0
47 80 6 48 81 49 82 0
47 107 6 48 108 49 109 0
47 155 6 48 156 49 157 0
47 173 6 48 174 49 175 0
47 233 6 48 234 49 235 0
47 255 6 48 256 49 257 0
57 80 6 58 81 59 82 0
57 93 6 58 94 59 95 0
57 107 6 58 108 59 109 0
57 122 6 58 123 59 124 0
57 173 6 58 174 59 175 0
57 212 6 58 213 59 214 0
57 233 6 58 234 59 235 0
68 80 6 69 81 70 82 0
68 93 6 69 94 70 95 0
68 107 6 69 108 70 109 0
68 138 6 69 139 70 140 0
68 155 6 69 156 70 157 0
68 192 6 69 193 70 194 0
68 255 6 69 256 70 257 0
80 192 6 81 193 82 194 0
80 212 6 81 213 82 214 0
80 233 6 81 234 82 235 0
80 255 6 81 256 82 257 0
93 107 6 94 108 95 109 0
93 122 6 94 123 95 124 0
93 155 6 94 156 95 157 0
93 192 6 94 193 95 194 0
93 233 6 94 234 95 235 0
107 138 6 108 139 109 140 0
107 173 6 108 174 109 175 0
107 212 6 108 213 109 214 0
107 255 6 108 256 109 257 0
122 155 6 123 156 124 157 0
122 212 6 123 213 124 214 0
122 255 6 123 256 124 257 0
138 173 6 139 174 140 175 0
138 192 6 139 193 140 194 0
138 212 6 139 213 140 214 0
155 233 6 156 234 157 235 0
155 255 6 156 256 157 257 0
173 192 6 174 193 175 194 0
173 233 6 174 234 175 235 0
192 233 6 193 234 194 235 0
212 255 6 213 256 214 257 0
30 38 31 39 34 42 0
30 47 31 48 34 51 0
30 57 31 58 34 61 0
30 68 31 69 34 72 0
30 122 31 123 34 126 0
30 138 31 139 34 142 0
30 155 31 156 34 159 0
30 173 31 174 34 177 0
38 47 39 48 42 51 0
38 80 39 81 42 84 0
38 93 39 94 42 97 0
38 122 39 123 42 126 0
38 138 39 139 42 142 0
38 192 39 193 42 196 0
38 212 39 213 42 216 0
47 80 48 81 51 84 0
47 107 48 108 51 111 0
47 155 48 156 51 159 0
47 173 48 174 51 177 0
47 233 48 234 51 237 0
47 255 48 256 51 259 0
57 80 58 81 61 84 0
57 93 58 94 61 97 0
57 107 58 108 61 111 0
57 122 58 123 61 126 0
57 173 58 174 61 177 0
57 212 58 213 61 216 0
57 233 58 234 61 237 0
68 80 69 81 72 84 0
68 93 69 94 72 97 0
68 107 69 108 72 111 0
68 138 69 139 72 142 0
68 155 69 156 72 159 0
68 192 69 193 72 196 0
68 255 69 256 72 259 0
80 192 81 193 84 196 0
80 212 81 213 84 216 0
80 233 81 234 84 237 0
80 255 81 256 84 259 0
93 107 94 108 97 111 0
93 122 94 123 97 126 0
93 155 94 156 97 159 0
93 192 94 193 97 196 0
93 233 94 234 97 237 0
107 138 108 139 111 142 0
107 173 108 174 111 177 0
107 212 108 213 111 216 0
107 255 108 256 111 259 0
122 155 123 156 126 159 0
122 212 123 213 126 216 0
122 255 123 256 126 259 0
138 173 139 174 142 177 0
138 192 139 193 142 196 0
138 212 139 213 142 216 0
155 233 156 234 159 237 0
155 255 156 256 159 259 0
173 192 174 193 177 196 0
173 233 174 234 177 237 0
192 233 193 234 196 237 0
212 255 213 256 216 259 0
30 38 31 39 35 43 0
30 47 31 48 35 52 0
30 57 31 58 35 62 0
30 68 31 69 35 73 0
30 122 31 123 35 127 0
30 138 31 139 35 143 0
30 155 31 156 35 160 0
30 173 31 174 35 178 0
38 47 39 48 43 52 0
38 80 39 81 43 85 0
38 93 39 94 43 98 0
38 122 39 123 43 127 0
38 138 39 139 43 143 0
38 192 39 193 43 197 0
38 212 39 213 43 217 0
47 80 48 81 52 85 0
47 107 48 108 52 112 0
47 155 48 156 52 160 0
47 173 48 174 52 178 0
47 233 48 234 52 238 0
47 255 48 256 52 260 0
57 80 58 81 62 85 0
57 93 58 94 62 98 0
57 107 58 108 62 112 0
57 122 58 123 62 127 0
57 173 58 174 62 178 0
57 212 58 213 62 217 0
57 233 58 234 62 238 0
68 80 69 81 73 85 0
68 93 69 94 73 98 0
68 107 69 108 73 112 0
68 138 69 139 73 143 0
68 155 69 156 73 160 0
68 192 69 193 73 197 0
68 255 69 256 73 260 0
80 192 81 193 85 197 0
80 212 81 213 85 217 0
80 233 81 234 85 238 0
80 255 81 256 85 260 0
93 107 94 108 98 112 0
93 122 94 123 98 127 0
93 155 94 156 98 160 0
93 192 94 193 98 197 0
93 233 94 234 98 238 0
107 138 108 139 112 143 0
107 173 108 174 112 178 0
107 212 108 213 112 217 0
107 255 108 256 112 260 0
122 155 123 156 127 160 0
122 212 123 213 127 217 0
122 255 123 256 127 260 0
138 173 139 174 143 178 0
138 192 139 193 143 197 0
138 212 139 213 143 217 0
155 233 156 234 160 238 0
155 255 156 256 160 260 0
173 192 174 193 178 197 0
173 233 174 234 178 238 0
192 233 193 234 197 238 0
212 255 213 256 217 260 0
30 38 47 31 39 48 0
30 38 122 31 39 123 0
30 38 138 31 39 139 0
30 47 155 31 48 156 0
30 47 173 31 48 174 0
30 57 122 31 58 123 0
30 57 173 31 58 174 0
30 68 138 31 69 139 0
30 68 155 31 69 156 0
30 122 155 31 123 156 0
30 138 173 31 139 174 0
38 47 80 39 48 81 0
38 80 192 39 81 193 0
38 80 212 39 81 213 0
38 93 122 39 94 123 0
38 93 192 39 94 193 0
38 122 212 39 123 213 0
38 138 192 39 139 193 0
38 138 212 39 139 213 0
47 80 233 48 81 234 0
47 80 255 48 81 256 0
47 107 173 48 108 174 0
47 107 255 48 108 256 0
47 155 233 48 156 234 0
47 155 255 48 156 256 0
47 173 233 48 174 234 0
57 80 212 58 81 213 0
57 80 233 58 81 234 0
57 93 107 58 94 108 0
57 93 122 58 94 123 0
57 93 233 58 94 234 0
57 107 173 58 108 174 0
57 107 212 58 108 213 0
57 122 212 58 123 213 0
57 173 233 58 174 234 0
68 80 192 69 81 193 0
68 80 255 69 81 256 0
68 93 107 69 94 108 0
68 93 155 69 94 156 0
68 93 192 69 94 193 0
68 107 138 69 108 139 0
68 107 255 69 108 256 0
68 138 192 69 139 193 0
68 155 255 69 156 256 0
80 192 233 81 193 234 0
80 212 255 81 213 256 0
93 122 155 94 123 156 0
93 155 233 94 156 234 0
93 192 233 94 193 234 0
107 138 173 108 139 174 0
107 138 212 108 139 213 0
107 212 255 108 213 256 0
122 155 255 123 156 256 0
122 212 255 123 213 256 0
138 173 192 139 174 193 0
173 192 233 174 193 234 0
30 32 34 36 0
38 40 42 44 0
47 49 51 53 0
57 59 61 63 0
68 70 72 74 0
80 82 84 86 0
93 95 97 99 0
107 109 111 113 0
122 124 126 128 0
138 140 142 144 0
155 157 159 161 0
173 175 177 179 0
192 194 196 198 0
212 214 216 218 0
233 235 237 239 0
255 257 259 261 0
30 38 32 40 34 42 0
30 47 32 49 34 51 0
30 57 32 59 34 61 0
30 68 32 70 34 72 0
30 122 32 124 34 126 0
30 138 32 140 34 142 0
30 155 32 157 34 159 0
30 173 32 175 34 177 0
38 47 40 49 42 51 0
38 80 40 82 42 84 0
38 93 40 95 42 97 0
38 122 40 124 42 126 0
38 138 40 140 42 142 0
38 192 40 194 42 196 0
38 212 40 214 42 216 0
47 80 49 82 51 84 0
47 107 49 109 51 111 0
47 155 49 157 51 159 0
47 173 49 175 51 177 0
47 233 49 235 51 237 0
47 255 49 257 51 259 0
57 80 59 82 61 84 0
57 93 59 95 61 97 0
57 107 59 109 61 111 0
57 122 59 124 61 126 0
57 173 59 175 61 177 0
57 212 59 214 61 216 0
57 233 59 235 61 237 0
68 80 70 82 72 84 0
68 93 70 95 72 97 0
68 107 70 109 72 111 0
68 138 70 140 72 142 0
68 155 70 157 72 159 0
68 192 70 194 72 196 0
68 255 70 257 72 259 0
80 192 82 194 84 196 0
80 212 82 214 84 216 0
80 233 82 235 84 237 0
80 255 82 257 84 259 0
93 107 95 109 97 111 0
93 122 95 124 97 126 0
93 155 95 157 97 159 0
93 192 95 194 97 196 0
93 233 95 235 97 237 0
107 138 109 140 111 142 0
107 173 109 175 111 177 0
107 212 109 214 111 216 0
107 255 109 257 111 259 0
122 155 124 157 126 159 0
122 212 124 214 126 216 0
122 255 124 257 126 259 0
138 173 140 175 142 177 0
138 192 140 194 142 196 0
138 212 140 214 142 216 0
155 233 157 235 159 237 0
155 255 157 257 159 259 0
173 192 175 194 177 196 0
173 233 175 235 177 237 0
192 233 194 235 196 237 0
212 255 214 257 216 259 0
30 38 32 40 36 44 0
30 47 32 49 36 53 0
30 57 32 59 36 63 0
30 68 32 70 36 74 0
30 122 32 124 36 128 0
30 138 32 140 36 144 0
30 155 32 157 36 161 0
30 173 32 175 36 179 0
38 47 40 49 44 53 0
38 80 40 82 44 86 0
38 93 40 95 44 99 0
38 122 40 124 44 128 0
38 138 40 140 44 144 0
38 192 40 194 44 198 0
38 212 40 214 44 218 0
47 80 49 82 53 86 0
47 107 49 109 53 113 0
47 155 49 157 53 161 0
47 173 49 175 53 179 0
47 233 49 235 53 239 0
47 255 49 257 53 261 0
57 80 59 82 63 86 0
57 93 59 95 63 99 0
57 107 59 109 63 113 0
57 122 59 124 63 128 0
57 173 59 175 63 179 0
57 212 59 214 63 218 0
57 233 59 235 63 239 0
68 80 70 82 74 86 0
68 93 70 95 74 99 0
68 107 70 109 74 113 0
68 138 70 140 74 144 0
68 155 70 157 74 161 0
68 192 70 194 74 198 0
68 255 70 257 74 261 0
80 192 82 194 86 198 0
80 212 82 214 86 218 0
80 233 82 235 86 239 0
80 255 82 257 86 261 0
93 107 95 109 99 113 0
93 122 95 124 99 128 0
93 155 95 157 99 161 0
93 192 95 194 99 198 0
93 233 95 235 99 239 0
107 138 109 140 113 144 0
107 173 109 175 113 179 0
107 212 109 214 113 218 0
107 255 109 257 113 261 0
122 155 124 157 128 161 0
122 212 124 214 128 218 0
122 255 124 257 128 261 0
138 173 140 175 144 179 0
138 192 140 194 144 198 0
138 212 140 214 144 218 0
155 233 157 235 161 239 0
155 255 157 257 161 261 0
173 192 175 194 179 198 0
173 233 175 235 179 239 0
192 233 194 235 198 239 0
212 255 214 257 218 261 0
30 38 47 32 40 49 0
30 38 122 32 40 124 0
30 38 138 32 40 140 0
30 47 155 32 49 157 0
30 47 173 32 49 175 0
30 57 122 32 59 124 0
30 57 173 32 59 175 0
30 68 138 32 70 140 0
30 68 155 32 70 157 0
30 122 155 32 124 157 0
30 138 173 32 140 175 0
38 47 80 40 49 82 0
38 80 192 40 82 194 0
38 80 212 40 82 214 0
38 93 122 40 95 124 0
38 93 192 40 95 194 0
38 122 212 40 124 214 0
38 138 192 40 140 194 0
38 138 212 40 140 214 0
47 80 233 49 82 235 0
47 80 255 49 82 257 0
47 107 173 49 109 175 0
47 107 255 49 109 257 0
47 155 233 49 157 235 0
47 155 255 49 157 257 0
47 173 233 49 175 235 0
57 80 212 59 82 214 0
57 80 233 59 82 235 0
57 93 107 59 95 109 0
57 93 122 59 95 124 0
57 93 233 59 95 235 0
57 107 173 59 109 175 0
57 107 212 59 109 214 0
57 122 212 59 124 214 0
57 173 233 59 175 235 0
68 80 192 70 82 194 0
68 80 255 70 82 257 0
68 93 107 70 95 109 0
68 93 155 70 95 157 0
68 93 192 70 95 194 0
68 107 138 70 109 140 0
68 107 255 70 109 257 0
68 138 192 70 140 194 0
68 155 255 70 157 257 0
80 192 233 82 194 235 0
80 212 255 82 214 257 0
93 122 155 95 124 157 0
93 155 233 95 157 235 0
93 192 233 95 194 235 0
107 138 173 109 140 175 0
107 138 212 109 140 214 0
107 212 255 109 214 257 0
122 155 255 124 157 257 0
122 212 255 124 214 257 0
138 173 192 140 175 194 0
173 192 233 175 194 235 0
30 38 34 42 36 44 0
30 47 34 51 36 53 0
30 57 34 61 36 63 0
30 68 34 72 36 74 0
30 122 34 126 36 128 0
30 138 34 142 36 144 0
30 155 34 159 36 161 0
30 173 34 177 36 179 0
38 47 42 51 44 53 0
38 80 42 84 44 86 0
38 93 42 97 44 99 0
38 122 42 126 44 128 0
38 138 42 142 44 144 0
38 192 42 196 44 198 0
38 212 42 216 44 218 0
47 80 51 84 53 86 0
47 107 51 111 53 113 0
47 155 51 159 53 161 0
47 173 51 177 53 179 0
47 233 51 237 53 239 0
47 255 51 259 53 261 0
57 80 61 84 63 86 0
57 93 61 97 63 99 0
57 107 61 111 63 113 0
57 122 61 126 63 128 0
57 173 61 177 63 179 0
57 212 61 216 63 218 0
57 233 61 237 63 239 0
68 80 72 84 74 86 0
68 93 72 97 74 99 0
68 107 72 111 74 113 0
68 138 72 142 74 144 0
68 155 72 159 74 161 0
68 192 72 196 74 198 0
68 255 72 259 74 261 0
80 192 84 196 86 198 0
80 212 84 216 86 218 0
80 233 84 237 86 239 0
80 255 84 259 86 261 0
93 107 97 111 99 113 0
93 122 97 126 99 128 0
93 155 97 159 99 161 0
93 192 97 196 99 198 0
93 233 97 237 99 239 0
107 138 111 142 113 144 0
107 173 111 177 113 179 0
107 212 111 216 113 218 0
107 255 111 259 113 261 0
122 155 126 159 128 161 0
122 212 126 216 128 218 0
122 255 126 259 128 261 0
138 173 142 177 144 179 0
138 192 142 196 144 198 0
138 212 142 216 144 218 0
155 233 159 237 161 239 0
155 255 159 259 161 261 0
173 192 177 196 179 198 0
173 233 177 237 179 239 0
192 233 196 237 198 239 0
212 255 216 259 218 261 0
30 38 47 34 42 51 0
30 38 122 34 42 126 0
30 38 138 34 42 142 0
30 47 155 34 51 159 0
30 47 173 34 51 177 0
30 57 122 34 61 126 0
30 57 173 34 61 177 0
30 68 138 34 72 142 0
30 68 155 34 72 159 0
30 122 155 34 126 159 0
30 138 173 34 142 177 0
38 47 80 42 51 84 0
38 80 192 42 84 196 0
38 80 212 42 84 216 0
38 93 122 42 97 126 0
38 93 192 42 97 196 0
38 122 212 42 126 216 0
38 138 192 42 142 196 0
38 138 212 42 142 216 0
47 80 233 51 84 237 0
47 80 255 51 84 259 0
47 107 173 51 111 177 0
47 107 255 51 111 259 0
47 155 233 51 159 237 0
47 155 255 51 159 259 0
47 173 233 51 177 237 0
57 80 212 61 84 216 0
57 80 233 61 84 237 0
57 93 107 61 97 111 0
57 93 122 61 97 126 0
57 93 233 61 97 237 0
57 107 173 61 111 177 0
57 107 212 61 111 216 0
57 122 212 61 126 216 0
57 173 233 61 177 237 0
68 80 192 72 84 196 0
68 80 255 72 84 259 0
68 93 107 72 97 111 0
68 93 155 72 97 159 0
68 93 192 72 97 196 0
68 107 138 72 111 142 0
68 107 255 72 111 259 0
68 138 192 72 142 196 0
68 155 255 72 159 259 0
80 192 233 84 196 237 0
80 212 255 84 216 259 0
93 122 155 97 126 159 0
93 155 233 97 159 237 0
93 192 233 97 196 237 0
107 138 173 111 142 177 0
107 138 212 111 142 216 0
107 212 255 111 216 259 0
122 155 255 126 159 259 0
122 212 255 126 216 259 0
138 173 192 142 177 196 0
173 192 233 177 196 237 0
30 38 28 35 43 36 44 0
30 47 28 35 52 36 53 0
30 57 28 35 62 36 63 0
30 68 28 35 73 36 74 0
30 122 28 35 127 36 128 0
30 138 28 35 143 36 144 0
30 155 28 35 160 36 161 0
30 173 28 35 178 36 179 0
38 47 28 43 52 44 53 0
38 80 28 43 85 44 86 0
38 93 28 43 98 44 99 0
38 122 28 43 127 44 128 0
38 138 28 43 143 44 144 0
38 192 28 43 197 44 198 0
38 212 28 43 217 44 218 0
47 80 28 52 85 53 86 0
47 107 28 52 112 53 113 0
47 155 28 52 160 53 161 0
47 173 28 52 178 53 179 0
47 233 28 52 238 53 239 0
47 255 28 52 260 53 261 0
57 80 28 62 85 63 86 0
57 93 28 62 98 63 99 0
57 107 28 62 112 63 113 0
57 122 28 62 127 63 128 0
57 173 28 62 178 63 179 0
57 212 28 62 217 63 218 0
57 233 28 62 238 63 239 0
68 80 28 73 85 74 86 0
68 93 28 73 98 74 99 0
68 107 28 73 112 74 113 0
68 138 28 73 143 74 144 0
68 155 28 73 160 74 161 0
68 192 28 73 197 74 198 0
68 255 28 73 260 74 261 0
80 192 28 85 197 86 198 0
80 212 28 85 217 86 218 0
80 233 28 85 238 86 239 0
80 255 28 85 260 86 261 0
93 107 28 98 112 99 113 0
93 122 28 98 127 99 128 0
93 155 28 98 160 99 161 0
93 192 28 98 197 99 198 0
93 233 28 98 238 99 239 0
107 138 28 112 143 113 144 0
107 173 28 112 178 113 179 0
107 212 28 112 217 113 218 0
107 255 28 112 260 113 261 0
122 155 28 127 160 128 161 0
122 212 28 127 217 128 218 0
122 255 28 127 260 128 261 0
138 173 28 143 178 144 179 0
138 192 28 143 197 144 198 0
138 212 28 143 217 144 218 0
155 233 28 160 238 161 239 0
155 255 28 160 260 161 261 0
173 192 28 178 197 179 198 0
173 233 28 178 238 179 239 0
192 233 28 197 238 198 239 0
212 255 28 217 260 218 261 0
30 38 47 35 43 52 0
30 38 122 35 43 127 0
30 38 138 35 43 143 0
30 47 155 35 52 160 0
30 47 173 35 52 178 0
30 57 122 35 62 127 0
30 57 173 35 62 178 0
30 68 138 35 73 143 0
30 68 155 35 73 160 0
30 122 155 35 127 160 0
30 138 173 35 143 178 0
38 47 80 43 52 85 0
38 80 192 43 85 197 0
38 80 212 43 85 217 0
38 93 122 43 98 127 0
38 93 192 43 98 197 0
38 122 212 43 127 217 0
38 138 192 43 143 197 0
38 138 212 43 143 217 0
47 80 233 52 85 238 0
47 80 255 52 85 260 0
47 107 173 52 112 178 0
47 107 255 52 112 260 0
47 155 233 52 160 238 0
47 155 255 52 160 260 0
47 173 233 52 178 238 0
57 80 212 62 85 217 0
57 80 233 62 85 238 0
57 93 107 62 98 112 0
57 93 122 62 98 127 0
57 93 233 62 98 238 0
57 107 173 62 112 178 0
57 107 212 62 112 217 0
57 122 212 62 127 217 0
57 173 233 62 178 238 0
68 80 192 73 85 197 0
68 80 255 73 85 260 0
68 93 107 73 98 112 0
68 93 155 73 98 160 0
68 93 192 73 98 197 0
68 107 138 73 112 143 0
68 107 255 73 112 260 0
68 138 192 73 143 197 0
68 155 255 73 160 260 0
80 192 233 85 197 238 0
80 212 255 85 217 260 0
93 122 155 98 127 160 0
93 155 233 98 160 238 0
93 192 233 98 197 238 0
107 138 173 112 143 178 0
107 138 212 112 143 217 0
107 212 255 112 217 260 0
122 155 255 127 160 260 0
122 212 255 127 217 260 0
138 173 192 143 178 197 0
173 192 233 178 197 238 0
30 38 47 36 44 53 0
30 38 122 36 44 128 0
30 38 138 36 44 144 0
30 47 155 36 53 161 0
30 47 173 36 53 179 0
30 57 122 36 63 128 0
30 57 173 36 63 179 0
30 68 138 36 74 144 0
30 68 155 36 74 161 0
30 122 155 36 128 161 0
30 138 173 36 144 179 0
38 47 80 44 53 86 0
38 80 192 44 86 198 0
38 80 212 44 86 218 0
38 93 122 44 99 128 0
38 93 192 44 99 198 0
38 122 212 44 128 218 0
38 138 192 44 144 198 0
38 138 212 44 144 218 0
47 80 233 53 86 239 0
47 80 255 53 86 261 0
47 107 173 53 113 179 0
47 107 255 53 113 261 0
47 155 233 53 161 239 0
47 155 255 53 161 261 0
47 173 233 53 179 239 0
57 80 212 63 86 218 0
57 80 233 63 86 239 0
57 93 107 63 99 113 0
57 93 122 63 99 128 0
57 93 233 63 99 239 0
57 107 173 63 113 179 0
57 107 212 63 113 218 0
57 122 212 63 128 218 0
57 173 233 63 179 239 0
68 80 192 74 86 198 0
68 80 255 74 86 261 0
68 93 107 74 99 113 0
68 93 155 74 99 161 0
68 93 192 74 99 198 0
68 107 138 74 113 144 0
68 107 255 74 113 261 0
68 138 192 74 144 198 0
68 155 255 74 161 261 0
80 192 233 86 198 239 0
80 212 255 86 218 261 0
93 122 155 99 128 161 0
93 155 233 99 161 239 0
93 192 233 99 198 239 0
107 138 173 113 144 179 0
107 138 212 113 144 218 0
107 212 255 113 218 261 0
122 155 255 128 161 261 0
122 212 255 128 218 261 0
138 173 192 144 179 198 0
173 192 233 179 198 239 0
6 31 32 33 34 0
6 39 40 41 42 0
6 48 49 50 51 0
6 58 59 60 61 0
6 69 70 71 72 0
6 81 82 83 84 0
6 94 95 96 97 0
6 108 109 110 111 0
6 123 124 125 126 0
6 139 140 141 142 0
6 156 157 158 159 0
6 174 175 176 177 0
6 193 194 195 196 0
6 213 214 215 216 0
6 234 235 236 237 0
6 256 257 258 259 0
6 31 39 32 40 33 41 0
6 31 48 32 49 33 50 0
6 31 58 32 59 33 60 0
6 31 69 32 70 33 71 0
6 31 123 32 124 33 125 0
6 31 139 32 140 33 141 0
6 31 156 32 157 33 158 0
6 31 174 32 175 33 176 0
6 39 48 40 49 41 50 0
6 39 81 40 82 41 83 0
6 39 94 40 95 41 96 0
6 39 123 40 124 41 125 0
6 39 139 40 140 41 141 0
6 39 193 40 194 41 195 0
6 39 213 40 214 41 215 0
6 48 81 49 82 50 83 0
6 48 108 49 109 50 110 0
6 48 156 49 157 50 158 0
6 48 174 49 175 50 176 0
6 48 234 49 235 50 236 0
6 48 256 49 257 50 258 0
6 58 81 59 82 60 83 0
6 58 94 59 95 60 96 0
6 58 108 59 109 60 110 0
6 58 123 59 124 60 125 0
6 58 174 59 175 60 176 0
6 58 213 59 214 60 215 0
6 58 234 59 235 60 236 0
6 69 81 70 82 71 83 0
6 69 94 70 95 71 96 0
6 69 108 70 109 71 110 0
6 69 139 70 140 71 141 0
6 69 156 70 157 71 158 0
6 69 193 70 194 71 195 0
6 69 256 70 257 71 258 0
6 81 193 82 194 83 195 0
6 81 213 82 214 83 215 0
6 81 234 82 235 83 236 0
6 81 256 82 257 83 258 0
6 94 108 95 109 96 110 0
6 94 123 95 124 96 125 0
6 94 156 95 157 96 158 0
6 94 193 95 194 96 195 0
6 94 234 95 235 96 236 0
6 108 139 109 140 110 141 0
6 108 174 109 175 110 176 0
6 108 213 109 214 110 215 0
6 108 256 109 257 110 258 0
6 123 156 124 157 125 158 0
6 123 213 124 214 125 215 0
6 123 256 124 257 125 258 0
6 139 174 140 175 141 176 0
6 139 193 140 194 141 195 0
6 139 213 140 214 141 215 0
6 156 234 157 235 158 236 0
6 156 256 157 257 158 258 0
6 174 193 175 194 176 195 0
6 174 234 175 235 176 236 0
6 193 234 194 235 195 236 0
6 213 256 214 257 215 258 0
6 31 39 32 40 34 42 0
6 31 48 32 49 34 51 0
6 31 58 32 59 34 61 0
6 31 69 32 70 34 72 0
6 31 123 32 124 34 126 0
6 31 139 32 140 34 142 0
6 31 156 32 157 34 159 0
6 31 174 32 175 34 177 0
6 39 48 40 49 42 51 0
6 39 81 40 82 42 84 0
6 39 94 40 95 42 97 0
6 39 123 40 124 42 126 0
6 39 139 40 140 42 142 0
6 39 193 40 194 42 196 0
6 39 213 40 214 42 216 0
6 48 81 49 82 51 84 0
6 48 108 49 109 51 111 0
6 48 156 49 157 51 159 0
6 48 174 49 175 51 177 0
6 48 234 49 235 51 237 0
6 48 256 49 257 51 259 0
6 58 81 59 82 61 84 0
6 58 94 59 95 61 97 0
6 58 108 59 109 61 111 0
6 58 123 59 124 61 126 0
6 58 174 59 175 61 177 0
6 58 213 59 214 61 216 0
6 58 234 59 235 61 237 0
6 69 81 70 82 72 84 0
6 69 94 70 95 72 97 0
6 69 108 70 109 72 111 0
6 69 139 70 140 72 142 0
6 69 156 70 157 72 159 0
6 69 193 70 194 72 196 0
6 69 256 70 257 72 259 0
6 81 193 82 194 84 196 0
6 81 213 82 214 84 216 0
6 81 234 82 235 84 237 0
6 81 256 82 257 84 259 0
6 94 108 95 109 97 111 0
6 94 123 95 124 97 126 0
6 94 156 95 157 97 159 0
6 94 193 95 194 97 196 0
6 94 234 95 235 97 237 0
6 108 139 109 140 111 142 0
6 108 174 109 175 111 177 0
6 108 213 109 214 111 216 0
6 108 256 109 257 111 259 0
6 123 156 124 157 126 159 0
6 123 213 124 214 126 216 0
6 123 256 124 257 126 259 0
6 139 174 140 175 142 177 0
6 139 193 140 194 142 196 0
6 139 213 140 214 142 216 0
6 156 234 157 235 159 237 0
6 156 256 157 257 159 259 0
6 174 193 175 194 177 196 0
6 174 234 175 235 177 237 0
6 193 234 194 235 196 237 0
6 213 256 214 257 216 259 0
6 31 39 48 32 40 49 0
6 31 39 123 32 40 124 0
6 31 39 139 32 40 140 0
6 31 48 156 32 49 157 0
6 31 48 174 32 49 175 0
6 31 58 123 32 59 124 0
6 31 58 174 32 59 175 0
6 31 69 139 32 70 140 0
6 31 69 156 32 70 157 0
6 31 123 156 32 124 157 0
6 31 139 174 32 140 175 0
6 39 48 81 40 49 82 0
6 39 81 193 40 82 194 0
6 39 81 213 40 82 214 0
6 39 94 123 40 95 124 0
6 39 94 193 40 95 194 0
6 39 123 213 40 124 214 0
6 39 139 193 40 140 194 0
6 39 139 213 40 140 214 0
6 48 81 234 49 82 235 0
6 48 81 256 49 82 257 0
6 48 108 174 49 109 175 0
6 48 108 256 49 109 257 0
6 48 156 234 49 157 235 0
6 48 156 256 49 157 257 0
6 48 174 234 49 175 235 0
6 58 81 213 59 82 214 0
6 58 81 234 59 82 235 0
6 58 94 108 59 95 109 0
6 58 94 123 59 95 124 0
6 58 94 234 59 95 235 0
6 58 108 174 59 109 175 0
6 58 108 213 59 109 214 0
6 58 123 213 59 124 214 0
6 58 174 234 59 175 235 0
6 69 81 193 70 82 194 0
6 69 81 256 70 82 257 0
6 69 94 108 70 95 109 0
6 69 94 156 70 95 157 0
6 69 94 193 70 95 194 0
6 69 108 139 70 109 140 0
6 69 108 256 70 109 257 0
6 69 139 193 70 140 194 0
6 69 156 256 70 157 257 0
6 81 193 234 82 194 235 0
6 81 213 256 82 214 257 0
6 94 123 156 95 124 157 0
6 94 156 234 95 157 235 0
6 94 193 234 95 194 235 0
6 108 139 174 109 140 175 0
6 108 139 213 109 140 214 0
6 108 213 256 109 214 257 0
6 123 156 256 124 157 257 0
6 123 213 256 124 214 257 0
6 139 174 193 140 175 194 0
6 174 193 234 175 194 235 0
31 39 33 41 34 42 0
31 48 33 50 34 51 0
31 58 33 60 34 61 0
31 69 33 71 34 72 0
31 123 33 125 34 126 0
31 139 33 141 34 142 0
31 156 33 158 34 159 0
31 174 33 176 34 177 0
39 48 41 50 42 51 0
39 81 41 83 42 84 0
39 94 41 96 42 97 0
39 123 41 125 42 126 0
39 139 41 141 42 142 0
39 193 41 195 42 196 0
39 213 41 215 42 216 0
48 81 50 83 51 84 0
48 108 50 110 51 111 0
48 156 50 158 51 159 0
48 174 50 176 51 177 0
48 234 50 236 51 237 0
48 256 50 258 51 259 0
58 81 60 83 61 84 0
58 94 60 96 61 97 0
58 108 60 110 61 111 0
58 123 60 125 61 126 0
58 174 60 176 61 177 0
58 213 60 215 61 216 0
58 234 60 236 61 237 0
69 81 71 83 72 84 0
69 94 71 96 72 97 0
69 108 71 110 72 111 0
69 139 71 141 72 142 0
69 156 71 158 72 159 0
69 193 71 195 72 196 0
69 256 71 258 72 259 0
81 193 83 195 84 196 0
81 213 83 215 84 216 0
81 234 83 236 84 237 0
81 256 83 258 84 259 0
94 108 96 110 97 111 0
94 123 96 125 97 126 0
94 156 96 158 97 159 0
94 193 96 195 97 196 0
94 234 96 236 97 237 0
108 139 110 141 111 142 0
108 174 110 176 111 177 0
108 213 110 215 111 216 0
108 256 110 258 111 259 0
123 156 125 158 126 159 0
123 213 125 215 126 216 0
123 256 125 258 126 259 0
139 174 141 176 142 177 0
139 193 141 195 142 196 0
139 213 141 215 142 216 0
156 234 158 236 159 237 0
156 256 158 258 159 259 0
174 193 176 195 177 196 0
174 234 176 236 177 237 0
193 234 195 236 196 237 0
213 256 215 258 216 259 0
31 39 33 41 35 43 0
31 48 33 50 35 52 0
31 58 33 60 35 62 0
31 69 33 71 35 73 0
31 123 33 125 35 127 0
31 139 33 141 35 143 0
31 156 33 158 35 160 0
31 174 33 176 35 178 0
39 48 41 50 43 52 0
39 81 41 83 43 85 0
39 94 41 96 43 98 0
39 123 41 125 43 127 0
39 139 41 141 43 143 0
39 193 41 195 43 197 0
39 213 41 215 43 217 0
48 81 50 83 52 85 0
48 108 50 110 52 112 0
48 156 50 158 52 160 0
48 174 50 176 52 178 0
48 234 50 236 52 238 0
48 256 50 258 52 260 0
58 81 60 83 62 85 0
58 94 60 96 62 98 0
58 108 60 110 62 112 0
58 123 60 125 62 127 0
58 174 60 176 62 178 0
58 213 60 215 62 217 0
58 234 60 236 62 238 0
69 81 71 83 73 85 0
69 94 71 96 73 98 0
69 108 71 110 73 112 0
69 139 71 141 73 143 0
69 156 71 158 73 160 0
69 193 71 195 73 197 0
69 256 71 258 73 260 0
81 193 83 195 85 197 0
81 213 83 215 85 217 0
81 234 83 236 85 238 0
81 256 83 258 85 260 0
94 108 96 110 98 112 0
94 123 96 125 98 127 0
94 156 96 158 98 160 0
94 193 96 195 98 197 0
94 234 96 236 98 238 0
108 139 110 141 112 143 0
108 174 110 176 112 178 0
108 213 110 215 112 217 0
108 256 110 258 112 260 0
123 156 125 158 127 160 0
123 213 125 215 127 217 0
123 256 125 258 127 260 0
139 174 141 176 143 178 0
139 193 141 195 143 197 0
139 213 141 215 143 217 0
156 234 158 236 160 238 0
156 256 158 258 160 260 0
174 193 176 195 178 197 0
174 234 176 236 178 238 0
193 234 195 236 197 238 0
213 256 215 258 217 260 0
31 39 48 33 41 50 0
31 39 123 33 41 125 0
31 39 139 33 41 141 0
31 48 156 33 50 158 0
31 48 174 33 50 176 0
31 58 123 33 60 125 0
31 58 174 33 60 176 0
31 69 139 33 71 141 0
31 69 156 33 71 158 0
31 123 156 33 125 158 0
31 139 174 33 141 176 0
39 48 81 41 50 83 0
39 81 193 41 83 195 0
39 81 213 41 83 215 0
39 94 123 41 96 125 0
39 94 193 41 96 195 0
39 123 213 41 125 215 0
39 139 193 41 141 195 0
39 139 213 41 141 215 0
48 81 234 50 83 236 0
48 81 256 50 83 258 0
48 108 174 50 110 176 0
48 108 256 50 110 258 0
48 156 234 50 158 236 0
48 156 256 50 158 258 0
48 174 234 50 176 236 0
58 81 213 60 83 215 0
58 81 234 60 83 236 0
58 94 108 60 96 110 0
58 94 123 60 96 125 0
58 94 234 60 96 236 0
58 108 174 60 110 176 0
58 108 213 60 110 215 0
58 123 213 60 125 215 0
58 174 234 60 176 236 0
69 81 193 71 83 195 0
69 81 256 71 83 258 0
69 94 108 71 96 110 0
69 94 156 71 96 158 0
69 94 193 71 96 195 0
69 108 139 71 110 141 0
69 108 256 71 110 258 0
69 139 193 71 141 195 0
69 156 256 71 158 258 0
81 193 234 83 195 236 0
81 213 256 83 215 258 0
94 123 156 96 125 158 0
94 156 234 96 158 236 0
94 193 234 96 195 236 0
108 139 174 110 141 176 0
108 139 213 110 141 215 0
108 213 256 110 215 258 0
123 156 256 125 158 258 0
123 213 256 125 215 258 0
139 174 193 141 176 195 0
174 193 234 176 195 236 0
31 39 48 34 42 51 0
31 39 123 34 42 126 0
31 39 139 34 42 142 0
31 48 156 34 51 159 0
31 48 174 34 51 177 0
31 58 123 34 61 126 0
31 58 174 34 61 177 0
31 69 139 34 72 142 0
31 69 156 34 72 159 0
31 123 156 34 126 159 0
31 139 174 34 142 177 0
39 48 81 42 51 84 0
39 81 193 42 84 196 0
39 81 213 42 84 216 0
39 94 123 42 97 126 0
39 94 193 42 97 196 0
39 123 213 42 126 216 0
39 139 193 42 142 196 0
39 139 213 42 142 216 0
48 81 234 51 84 237 0
48 81 256 51 84 259 0
48 108 174 51 111 177 0
48 108 256 51 111 259 0
48 156 234 51 159 237 0
48 156 256 51 159 259 0
48 174 234 51 177 237 0
58 81 213 61 84 216 0
58 81 234 61 84 237 0
58 94 108 61 97 111 0
58 94 123 61 97 126 0
58 94 234 61 97 237 0
58 108 174 61 111 177 0
58 108 213 61 111 216 0
58 123 213 61 126 216 0
58 174 234 61 177 237 0
69 81 193 72 84 196 0
69 81 256 72 84 259 0
69 94 108 72 97 111 0
69 94 156 72 97 159 0
69 94 193 72 97 196 0
69 108 139 72 111 142 0
69 108 256 72 111 259 0
69 139 193 72 142 196 0
69 156 256 72 159 259 0
81 193 234 84 196 237 0
81 213 256 84 216 259 0
94 123 156 97 126 159 0
94 156 234 97 159 237 0
94 193 234 97 196 237 0
108 139 174 111 142 177 0
108 139 213 111 142 216 0
108 213 256 111 216 259 0
123 156 256 126 159 259 0
123 213 256 126 216 259 0
139 174 193 142 177 196 0
174 193 234 177 196 237 0
31 39 48 35 43 52 0
31 39 123 35 43 127 0
31 39 139 35 43 143 0
31 48 156 35 52 160 0
31 48 174 35 52 178 0
31 58 123 35 62 127 0
31 58 174 35 62 178 0
31 69 139 35 73 143 0
31 69 156 35 73 160 0
31 123 156 35 127 160 0
31 139 174 35 143 178 0
39 48 81 43 52 85 0
39 81 193 43 85 197 0
39 81 213 43 85 217 0
39 94 123 43 98 127 0
39 94 193 43 98 197 0
39 123 213 43 127 217 0
39 139 193 43 143 197 0
39 139 213 43 143 217 0
48 81 234 52 85 238 0
48 81 256 52 85 260 0
48 108 174 52 112 178 0
48 108 256 52 112 260 0
48 156 234 52 160 238 0
48 156 256 52 160 260 0
48 174 234 52 178 238 0
58 81 213 62 85 217 0
58 81 234 62 85 238 0
58 94 108 62 98 112 0
58 94 123 62 98 127 0
58 94 234 62 98 238 0
58 108 174 62 112 178 0
58 108 213 62 112 217 0
58 123 213 62 127 217 0
58 174 234 62 178 238 0
69 81 193 73 85 197 0
69 81 256 73 85 260 0
69 94 108 73 98 112 0
69 94 156 73 98 160 0
69 94 193 73 98 197 0
69 108 139 73 112 143 0
69 108 256 73 112 260 0
69 139 193 73 143 197 0
69 156 256 73 160 260 0
81 193 234 85 197 238 0
81 213 256 85 217 260 0
94 123 156 98 127 160 0
94 156 234 98 160 238 0
94 193 234 98 197 238 0
108 139 174 112 143 178 0
108 139 213 112 143 217 0
108 213 256 112 217 260 0
123 156 256 127 160 260 0
123 213 256 127 217 260 0
139 174 193 143 178 197 0
174 193 234 178 197 238 0
32 26 33 34 36 0
40 26 41 42 44 0
49 26 50 51 53 0
59 26 60 61 63 0
70 26 71 72 74 0
82 26 83 84 86 0
95 26 96 97 99 0
109 26 110 111 113 0
124 26 125 126 128 0
140 26 141 142 144 0
157 26 158 159 161 0
175 26 176 177 179 0
194 26 195 196 198 0
214 26 215 216 218 0
235 26 236 237 239 0
257 26 258 259 261 0
32 40 33 41 34 42 0
32 49 33 50 34 51 0
32 59 33 60 34 61 0
32 70 33 71 34 72 0
32 124 33 125 34 126 0
32 140 33 141 34 142 0
32 157 33 158 34 159 0
32 175 33 176 34 177 0
40 49 41 50 42 51 0
40 82 41 83 42 84 0
40 95 41 96 42 97 0
40 124 41 125 42 126 0
40 140 41 141 42 142 0
40 194 41 195 42 196 0
40 214 41 215 42 216 0
49 82 50 83 51 84 0
49 109 50 110 51 111 0
49 157 50 158 51 159 0
49 175 50 176 51 177 0
49 235 50 236 51 237 0
49 257 50 258 51 259 0
59 82 60 83 61 84 0
59 95 60 96 61 97 0
59 109 60 110 61 111 0
59 124 60 125 61 126 0
59 175 60 176 61 177 0
59 214 60 215 61 216 0
59 235 60 236 61 237 0
70 82 71 83 72 84 0
70 95 71 96 72 97 0
70 109 71 110 72 111 0
70 140 71 141 72 142 0
70 157 71 158 72 159 0
70 194 71 195 72 196 0
70 257 71 258 72 259 0
82 194 83 195 84 196 0
82 214 83 215 84 216 0
82 235 83 236 84 237 0
82 257 83 258 84 259 0
95 109 96 110 97 111 0
95 124 96 125 97 126 0
95 157 96 158 97 159 0
95 194 96 195 97 196 0
95 235 96 236 97 237 0
109 140 110 141 111 142 0
109 175 110 176 111 177 0
109 214 110 215 111 216 0
109 257 110 258 111 259 0
124 157 125 158 126 159 0
124 214 125 215 126 216 0
124 257 125 258 126 259 0
140 175 141 176 142 177 0
140 194 141 195 142 196 0
140 214 141 215 142 216 0
157 235 158 236 159 237 0
157 257 158 258 159 259 0
175 194 176 195 177 196 0
175 235 176 236 177 237 0
194 235 195 236 196 237 0
214 257 215 258 216 259 0
32 40 26 33 41 36 44 0
32 49 26 33 50 36 53 0
32 59 26 33 60 36 63 0
32 70 26 33 71 36 74 0
32 124 26 33 125 36 128 0
32 140 26 33 141 36 144 0
32 157 26 33 158 36 161 0
32 175 26 33 176 36 179 0
40 49 26 41 50 44 53 0
40 82 26 41 83 44 86 0
40 95 26 41 96 44 99 0
40 124 26 41 125 44 128 0
40 140 26 41 141 44 144 0
40 194 26 41 195 44 198 0
40 214 26 41 215 44 218 0
49 82 26 50 83 53 86 0
49 109 26 50 110 53 113 0
49 157 26 50 158 53 161 0
49 175 26 50 176 53 179 0
49 235 26 50 236 53 239 0
49 257 26 50 258 53 261 0
59 82 26 60 83 63 86 0
59 95 26 60 96 63 99 0
59 109 26 60 110 63 113 0
59 124 26 60 125 63 128 0
59 175 26 60 176 63 179 0
59 214 26 60 215 63 218 0
59 235 26 60 236 63 239 0
70 82 26 71 83 74 86 0
70 95 26 71 96 74 99 0
70 109 26 71 110 74 113 0
70 140 26 71 141 74 144 0
70 157 26 71 158 74 161 0
70 194 26 71 195 74 198 0
70 257 26 71 258 74 261 0
82 194 26 83 195 86 198 0
82 214 26 83 215 86 218 0
82 235 26 83 236 86 239 0
82 257 26 83 258 86 261 0
95 109 26 96 110 99 113 0
95 124 26 96 125 99 128 0
95 157 26 96 158 99 161 0
95 194 26 96 195 99 198 0
95 235 26 96 236 99 239 0
109 140 26 110 141 113 144 0
109 175 26 110 176 113 179 0
109 214 26 110 215 113 218 0
109 257 26 110 258 113 261 0
124 157 26 125 158 128 161 0
124 214 26 125 215 128 218 0
124 257 26 125 258 128 261 0
140 175 26 141 176 144 179 0
140 194 26 141 195 144 198 0
140 214 26 141 215 144 218 0
157 235 26 158 236 161 239 0
157 257 26 158 258 161 261 0
175 194 26 176 195 179 198 0
175 235 26 176 236 179 239 0
194 235 26 195 236 198 239 0
214 257 26 215 258 218 261 0
32 40 49 33 41 50 0
32 40 124 33 41 125 0
32 40 140 33 41 141 0
32 49 157 33 50 158 0
32 49 175 33 50 176 0
32 59 124 33 60 125 0
32 59 175 33 60 176 0
32 70 140 33 71 141 0
32 70 157 33 71 158 0
32 124 157 33 125 158 0
32 140 175 33 141 176 0
40 49 82 41 50 83 0
40 82 194 41 83 195 0
40 82 214 41 83 215 0
40 95 124 41 96 125 0
40 95 194 41 96 195 0
40 124 214 41 125 215 0
40 140 194 41 141 195 0
40 140 214 41 141 215 0
49 82 235 50 83 236 0
49 82 257 50 83 258 0
49 109 175 50 110 176 0
49 109 257 50 110 258 0
49 157 235 50 158 236 0
49 157 257 50 158 258 0
49 175 235 50 176 236 0
59 82 214 60 83 215 0
59 82 235 60 83 236 0
59 95 109 60 96 110 0
59 95 124 60 96 125 0
59 95 235 60 96 236 0
59 109 175 60 110 176 0
59 109 214 60 110 215 0
59 124 214 60 125 215 0
59 175 235 60 176 236 0
70 82 194 71 83 195 0
70 82 257 71 83 258 0
70 95 109 71 96 110 0
70 95 157 71 96 158 0
70 95 194 71 96 195 0
70 109 140 71 110 141 0
70 109 257 71 110 258 0
70 140 194 71 141 195 0
70 157 257 71 158 258 0
82 194 235 83 195 236 0
82 214 257 83 215 258 0
95 124 157 96 125 158 0
95 157 235 96 158 236 0
95 194 235 96 195 236 0
109 140 175 110 141 176 0
109 140 214 110 141 215 0
109 214 257 110 215 258 0
124 157 257 125 158 258 0
124 214 257 125 215 258 0
140 175 194 141 176 195 0
175 194 235 176 195 236 0
32 40 34 42 36 44 0
32 49 34 51 36 53 0
32 59 34 61 36 63 0
32 70 34 72 36 74 0
32 124 34 126 36 128 0
32 140 34 142 36 144 0
32 157 34 159 36 161 0
32 175 34 177 36 179 0
40 49 42 51 44 53 0
40 82 42 84 44 86 0
40 95 42 97 44 99 0
40 124 42 126 44 128 0
40 140 42 142 44 144 0
40 194 42 196 44 198 0
40 214 42 216 44 218 0
49 82 51 84 53 86 0
49 109 51 111 53 113 0
49 157 51 159 53 161 0
49 175 51 177 53 179 0
49 235 51 237 53 239 0
49 257 51 259 53 261 0
59 82 61 84 63 86 0
59 95 61 97 63 99 0
59 109 61 111 63 113 0
59 124 61 126 63 128 0
59 175 61 177 63 179 0
59 214 61 216 63 218 0
59 235 61 237 63 239 0
70 82 72 84 74 86 0
70 95 72 97 74 99 0
70 109 72 111 74 113 0
70 140 72 142 74 144 0
70 157 72 159 74 161 0
70 194 72 196 74 198 0
70 257 72 259 74 261 0
82 194 84 196 86 198 0
82 214 84 216 86 218 0
82 235 84 237 86 239 0
82 257 84 259 86 261 0
95 109 97 111 99 113 0
95 124 97 126 99 128 0
95 157 97 159 99 161 0
95 194 97 196 99 198 0
95 235 97 237 99 239 0
109 140 111 142 113 144 0
109 175 111 177 113 179 0
109 214 111 216 113 218 0
109 257 111 259 113 261 0
124 157 126 159 128 161 0
124 214 126 216 128 218 0
124 257 126 259 128 261 0
140 175 142 177 144 179 0
140 194 142 196 144 198 0
140 214 142 216 144 218 0
157 235 159 237 161 239 0
157 257 159 259 161 261 0
175 194 177 196 179 198 0
175 235 177 237 179 239 0
194 235 196 237 198 239 0
214 257 216 259 218 261 0
32 40 49 34 42 51 0
32 40 124 34 42 126 0
32 40 140 34 42 142 0
32 49 157 34 51 159 0
32 49 175 34 51 177 0
32 59 124 34 61 126 0
32 59 175 34 61 177 0
32 70 140 34 72 142 0
32 70 157 34 72 159 0
32 124 157 34 126 159 0
32 140 175 34 142 177 0
40 49 82 42 51 84 0
40 82 194 42 84 196 0
40 82 214 42 84 216 0
40 95 124 42 97 126 0
40 95 194 42 97 196 0
40 124 214 42 126 216 0
40 140 194 42 142 196 0
40 140 214 42 142 216 0
49 82 235 51 84 237 0
49 82 257 51 84 259 0
49 109 175 51 111 177 0
49 109 257 51 111 259 0
49 157 235 51 159 237 0
49 157 257 51 159 259 0
49 175 235 51 177 237 0
59 82 214 61 84 216 0
59 82 235 61 84 237 0
59 95 109 61 97 111 0
59 95 124 61 97 126 0
59 95 235 61 97 237 0
59 109 175 61 111 177 0
59 109 214 61 111 216 0
59 124 214 61 126 216 0
59 175 235 61 177 237 0
70 82 194 72 84 196 0
70 82 257 72 84 259 0
70 95 109 72 97 111 0
70 95 157 72 97 159 0
70 95 194 72 97 196 0
70 109 140 72 111 142 0
70 109 257 72 111 259 0
70 140 194 72 142 196 0
70 157 257 72 159 259 0
82 194 235 84 196 237 0
82 214 257 84 216 259 0
95 124 157 97 126 159 0
95 157 235 97 159 237 0
95 194 235 97 196 237 0
109 140 175 111 142 177 0
109 140 214 111 142 216 0
109 214 257 111 216 259 0
124 157 257 126 159 259 0
124 214 257 126 216 259 0
140 175 194 142 177 196 0
175 194 235 177 196 237 0
32 40 49 36 44 53 0
32 40 124 36 44 128 0
32 40 140 36 44 144 0
32 49 157 36 53 161 0
32 49 175 36 53 179 0
32 59 124 36 63 128 0
32 59 175 36 63 179 0
32 70 140 36 74 144 0
32 70 157 36 74 161 0
32 124 157 36 128 161 0
32 140 175 36 144 179 0
40 49 82 44 53 86 0
40 82 194 44 86 198 0
40 82 214 44 86 218 0
40 95 124 44 99 128 0
40 95 194 44 99 198 0
40 124 214 44 128 218 0
40 140 194 44 144 198 0
40 140 214 44 144 218 0
49 82 235 53 86 239 0
49 82 257 53 86 261 0
49 109 175 53 113 179 0
49 109 257 53 113 261 0
49 157 235 53 161 239 0
49 157 257 53 161 261 0
49 175 235 53 179 239 0
59 82 214 63 86 218 0
59 82 235 63 86 239 0
59 95 109 63 99 113 0
59 95 124 63 99 128 0
59 95 235 63 99 239 0
59 109 175 63 113 179 0
59 109 214 63 113 218 0
59 124 214 63 128 218 0
59 175 235 63 179 239 0
70 82 194 74 86 198 0
70 82 257 74 86 261 0
70 95 109 74 99 113 0
70 95 157 74 99 161 0
70 95 194 74 99 198 0
70 109 140 74 113 144 0
70 109 257 74 113 261 0
70 140 194 74 144 198 0
70 157 257 74 161 261 0
82 194 235 86 198 239 0
82 214 257 86 218 261 0
95 124 157 99 128 161 0
95 157 235 99 161 239 0
95 194 235 99 198 239 0
109 140 175 113 144 179 0
109 140 214 113 144 218 0
109 214 257 113 218 261 0
124 157 257 128 161 261 0
124 214 257 128 218 261 0
140 175 194 144 179 198 0
175 194 235 179 198 239 0
26 33 41 34 42 36 44 0
26 33 50 34 51 36 53 0
26 33 60 34 61 36 63 0
26 33 71 34 72 36 74 0
26 33 125 34 126 36 128 0
26 33 141 34 142 36 144 0
26 33 158 34 159 36 161 0
26 33 176 34 177 36 179 0
26 41 50 42 51 44 53 0
26 41 83 42 84 44 86 0
26 41 96 42 97 44 99 0
26 41 125 42 126 44 128 0
26 41 141 42 142 44 144 0
26 41 195 42 196 44 198 0
26 41 215 42 216 44 218 0
26 50 83 51 84 53 86 0
26 50 110 51 111 53 113 0
26 50 158 51 159 53 161 0
26 50 176 51 177 53 179 0
26 50 236 51 237 53 239 0
26 50 258 51 259 53 261 0
26 60 83 61 84 63 86 0
26 60 96 61 97 63 99 0
26 60 110 61 111 63 113 0
26 60 125 61 126 63 128 0
26 60 176 61 177 63 179 0
26 60 215 61 216 63 218 0
26 60 236 61 237 63 239 0
26 71 83 72 84 74 86 0
26 71 96 72 97 74 99 0
26 71 110 72 111 74 113 0
26 71 141 72 142 74 144 0
26 71 158 72 159 74 161 0
26 71 195 72 196 74 198 0
26 71 258 72 259 74 261 0
26 83 195 84 196 86 198 0
26 83 215 84 216 86 218 0
26 83 236 84 237 86 239 0
26 83 258 84 259 86 261 0
26 96 110 97 111 99 113 0
26 96 125 97 126 99 128 0
26 96 158 97 159 99 161 0
26 96 195 97 196 99 198 0
26 96 236 97 237 99 239 0
26 110 141 111 142 113 144 0
26 110 176 111 177 113 179 0
26 110 215 111 216 113 218 0
26 110 258 111 259 113 261 0
26 125 158 126 159 128 161 0
26 125 215 126 216 128 218 0
26 125 258 126 259 128 261 0
26 141 176 142 177 144 179 0
26 141 195 142 196 144 198 0
26 141 215 142 216 144 218 0
26 158 236 159 237 161 239 0
26 158 258 159 259 161 261 0
26 176 195 177 196 179 198 0
26 176 236 177 237 179 239 0
26 195 236 196 237 198 239 0
26 215 258 216 259 218 261 0
33 41 50 34 42 51 0
33 41 125 34 42 126 0
33 41 141 34 42 142 0
33 50 158 34 51 159 0
33 50 176 34 51 177 0
33 60 125 34 61 126 0
33 60 176 34 61 177 0
33 71 141 34 72 142 0
33 71 158 34 72 159 0
33 125 158 34 126 159 0
33 141 176 34 142 177 0
41 50 83 42 51 84 0
41 83 195 42 84 196 0
41 83 215 42 84 216 0
41 96 125 42 97 126 0
41 96 195 42 97 196 0
41 125 215 42 126 216 0
41 141 195 42 142 196 0
41 141 215 42 142 216 0
50 83 236 51 84 237 0
50 83 258 51 84 259 0
50 110 176 51 111 177 0
50 110 258 51 111 259 0
50 158 236 51 159 237 0
50 158 258 51 159 259 0
50 176 236 51 177 237 0
60 83 215 61 84 216 0
60 83 236 61 84 237 0
60 96 110 61 97 111 0
60 96 125 61 97 126 0
60 96 236 61 97 237 0
60 110 176 61 111 177 0
60 110 215 61 111 216 0
60 125 215 61 126 216 0
60 176 236 61 177 237 0
71 83 195 72 84 196 0
71 83 258 72 84 259 0
71 96 110 72 97 111 0
71 96 158 72 97 159 0
71 96 195 72 97 196 0
71 110 141 72 111 142 0
71 110 258 72 111 259 0
71 141 195 72 142 196 0
71 158 258 72 159 259 0
83 195 236 84 196 237 0
83 215 258 84 216 259 0
96 125 158 97 126 159 0
96 158 236 97 159 237 0
96 195 236 97 196 237 0
110 141 176 111 142 177 0
110 141 215 111 142 216 0
110 215 258 111 216 259 0
125 158 258 126 159 259 0
125 215 258 126 216 259 0
141 176 195 142 177 196 0
176 195 236 177 196 237 0
26 33 41 28 35 43 36 44 0
26 33 50 28 35 52 36 53 0
26 33 60 28 35 62 36 63 0
26 33 71 28 35 73 36 74 0
26 33 125 28 35 127 36 128 0
26 33 141 28 35 143 36 144 0
26 33 158 28 35 160 36 161 0
26 33 176 28 35 178 36 179 0
26 41 50 28 43 52 44 53 0
26 41 83 28 43 85 44 86 0
26 41 96 28 43 98 44 99 0
26 41 125 28 43 127 44 128 0
26 41 141 28 43 143 44 144 0
26 41 195 28 43 197 44 198 0
26 41 215 28 43 217 44 218 0
26 50 83 28 52 85 53 86 0
26 50 110 28 52 112 53 113 0
26 50 158 28 52 160 53 161 0
26 50 176 28 52 178 53 179 0
26 50 236 28 52 238 53 239 0
26 50 258 28 52 260 53 261 0
26 60 83 28 62 85 63 86 0
26 60 96 28 62 98 63 99 0
26 60 110 28 62 112 63 113 0
26 60 125 28 62 127 63 128 0
26 60 176 28 62 178 63 179 0
26 60 215 28 62 217 63 218 0
26 60 236 28 62 238 63 239 0
26 71 83 28 73 85 74 86 0
26 71 96 28 73 98 74 99 0
26 71 110 28 73 112 74 113 0
26 71 141 28 73 143 74 144 0
26 71 158 28 73 160 74 161 0
26 71 195 28 73 197 74 198 0
26 71 258 28 73 260 74 261 0
26 83 195 28 85 197 86 198 0
26 83 215 28 85 217 86 218 0
26 83 236 28 85 238 86 239 0
26 83 258 28 85 260 86 261 0
26 96 110 28 98 112 99 113 0
26 96 125 28 98 127 99 128 0
26 96 158 28 98 160 99 161 0
26 96 195 28 98 197 99 198 0
26 96 236 28 98 238 99 239 0
26 110 141 28 112 143 113 144 0
26 110 176 28 112 178 113 179 0
26 110 215 28 112 217 113 218 0
26 110 258 28 112 260 113 261 0
26 125 158 28 127 160 128 161 0
26 125 215 28 127 217 128 218 0
26 125 258 28 127 260 128 261 0
26 141 176 28 143 178 144 179 0
26 141 195 28 143 197 144 198 0
26 141 215 28 143 217 144 218 0
26 158 236 28 160 238 161 239 0
26 158 258 28 160 260 161 261 0
26 176 195 28 178 197 179 198 0
26 176 236 28 178 238 179 239 0
26 195 236 28 197 238 198 239 0
26 215 258 28 217 260 218 261 0
33 41 50 35 43 52 0
33 41 125 35 43 127 0
33 41 141 35 43 143 0
33 50 158 35 52 160 0
33 50 176 35 52 178 0
33 60 125 35 62 127 0
33 60 176 35 62 178 0
33 71 141 35 73 143 0
33 71 158 35 73 160 0
33 125 158 35 127 160 0
33 141 176 35 143 178 0
41 50 83 43 52 85 0
41 83 195 43 85 197 0
41 83 215 43 85 217 0
41 96 125 43 98 127 0
41 96 195 43 98 197 0
41 125 215 43 127 217 0
41 141 195 43 143 197 0
41 141 215 43 143 217 0
50 83 236 52 85 238 0
50 83 258 52 85 260 0
50 110 176 52 112 178 0
50 110 258 52 112 260 0
50 158 236 52 160 238 0
50 158 258 52 160 260 0
50 176 236 52 178 238 0
60 83 215 62 85 217 0
60 83 236 62 85 238 0
60 96 110 62 98 112 0
60 96 125 62 98 127 0
60 96 236 62 98 238 0
60 110 176 62 112 178 0
60 110 215 62 112 217 0
60 125 215 62 127 217 0
60 176 236 62 178 238 0
71 83 195 73 85 197 0
71 83 258 73 85 260 0
71 96 110 73 98 112 0
71 96 158 73 98 160 0
71 96 195 73 98 197 0
71 110 141 73 112 143 0
71 110 258 73 112 260 0
71 141 195 73 143 197 0
71 158 258 73 160 260 0
83 195 236 85 197 238 0
83 215 258 85 217 260 0
96 125 158 98 127 160 0
96 158 236 98 160 238 0
96 195 236 98 197 238 0
110 141 176 112 143 178 0
110 141 215 112 143 217 0
110 215 258 112 217 260 0
125 158 258 127 160 260 0
125 215 258 127 217 260 0
141 176 195 143 178 197 0
176 195 236 178 197 238 0
26 33 41 50 36 44 53 0
26 33 41 125 36 44 128 0
26 33 41 141 36 44 144 0
26 33 50 158 36 53 161 0
26 33 50 176 36 53 179 0
26 33 60 125 36 63 128 0
26 33 60 176 36 63 179 0
26 33 71 141 36 74 144 0
26 33 71 158 36 74 161 0
26 33 125 158 36 128 161 0
26 33 141 176 36 144 179 0
26 41 50 83 44 53 86 0
26 41 83 195 44 86 198 0
26 41 83 215 44 86 218 0
26 41 96 125 44 99 128 0
26 41 96 195 44 99 198 0
26 41 125 215 44 128 218 0
26 41 141 195 44 144 198 0
26 41 141 215 44 144 218 0
26 50 83 236 53 86 239 0
26 50 83 258 53 86 261 0
26 50 110 176 53 113 179 0
26 50 110 258 53 113 261 0
26 50 158 236 53 161 239 0
26 50 158 258 53 161 261 0
26 50 176 236 53 179 239 0
26 60 83 215 63 86 218 0
26 60 83 236 63 86 239 0
26 60 96 110 63 99 113 0
26 60 96 125 63 99 128 0
26 60 96 236 63 99 239 0
26 60 110 176 63 113 179 0
26 60 110 215 63 113 218 0
26 60 125 215 63 128 218 0
26 60 176 236 63 179 239 0
26 71 83 195 74 86 198 0
26 71 83 258 74 86 261 0
26 71 96 110 74 99 113 0
26 71 96 158 74 99 161 0
26 71 96 195 74 99 198 0
26 71 110 141 74 113 144 0
26 71 110 258 74 113 261 0
26 71 141 195 74 144 198 0
26 71 158 258 74 161 261 0
26 83 195 236 86 198 239 0
26 83 215 258 86 218 261 0
26 96 125 158 99 128 161 0
26 96 158 236 99 161 239 0
26 96 195 236 99 198 239 0
26 110 141 176 113 144 179 0
26 110 141 215 113 144 218 0
26 110 215 258 113 218 261 0
26 125 158 258 128 161 261 0
26 125 215 258 128 218 261 0
26 141 176 195 144 179 198 0
26 176 195 236 179 198 239 0
34 42 51 36 44 53 0
34 42 126 36 44 128 0
34 42 142 36 44 144 0
34 51 159 36 53 161 0
34 51 177 36 53 179 0
34 61 126 36 63 128 0
34 61 177 36 63 179 0
34 72 142 36 74 144 0
34 72 159 36 74 161 0
34 126 159 36 128 161 0
34 142 177 36 144 179 0
42 51 84 44 53 86 0
42 84 196 44 86 198 0
42 84 216 44 86 218 0
42 97 126 44 99 128 0
42 97 196 44 99 198 0
42 126 216 44 128 218 0
42 142 196 44 144 198 0
42 142 216 44 144 218 0
51 84 237 53 86 239 0
51 84 259 53 86 261 0
51 111 177 53 113 179 0
51 111 259 53 113 261 0
51 159 237 53 161 239 0
51 159 259 53 161 261 0
51 177 237 53 179 239 0
61 84 216 63 86 218 0
61 84 237 63 86 239 0
61 97 111 63 99 113 0
61 97 126 63 99 128 0
61 97 237 63 99 239 0
61 111 177 63 113 179 0
61 111 216 63 113 218 0
61 126 216 63 128 218 0
61 177 237 63 179 239 0
72 84 196 74 86 198 0
72 84 259 74 86 261 0
72 97 111 74 99 113 0
72 97 159 74 99 161 0
72 97 196 74 99 198 0
72 111 142 74 113 144 0
72 111 259 74 113 261 0
72 142 196 74 144 198 0
72 159 259 74 161 261 0
84 196 237 86 198 239 0
84 216 259 86 218 261 0
97 126 159 99 128 161 0
97 159 237 99 161 239 0
97 196 237 99 198 239 0
111 142 177 113 144 179 0
111 142 216 113 144 218 0
111 216 259 113 218 261 0
126 159 259 128 161 261 0
126 216 259 128 218 261 0
142 177 196 144 179 198 0
177 196 237 179 198 239 0
28 35 43 52 36 44 53 0
28 35 43 127 36 44 128 0
28 35 43 143 36 44 144 0
28 35 52 160 36 53 161 0
28 35 52 178 36 53 179 0
28 35 62 127 36 63 128 0
28 35 62 178 36 63 179 0
28 35 73 143 36 74 144 0
28 35 73 160 36 74 161 0
28 35 127 160 36 128 161 0
28 35 143 178 36 144 179 0
28 43 52 85 44 53 86 0
28 43 85 197 44 86 198 0
28 43 85 217 44 86 218 0
28 43 98 127 44 99 128 0
28 43 98 197 44 99 198 0
28 43 127 217 44 128 218 0
28 43 143 197 44 144 198 0
28 43 143 217 44 144 218 0
28 52 85 238 53 86 239 0
28 52 85 260 53 86 261 0
28 52 112 178 53 113 179 0
28 52 112 260 53 113 261 0
28 52 160 238 53 161 239 0
28 52 160 260 53 161 261 0
28 52 178 238 53 179 239 0
28 62 85 217 63 86 218 0
28 62 85 238 63 86 239 0
28 62 98 112 63 99 113 0
28 62 98 127 63 99 128 0
28 62 98 238 63 99 239 0
28 62 112 178 63 113 179 0
28 62 112 217 63 113 218 0
28 62 127 217 63 128 218 0
28 62 178 238 63 179 239 0
28 73 85 197 74 86 198 0
28 73 85 260 74 86 261 0
28 73 98 112 74 99 113 0
28 73 98 160 74 99 161 0
28 73 98 197 74 99 198 0
28 73 112 143 74 113 144 0
28 73 112 260 74 113 261 0
28 73 143 197 74 144 198 0
28 73 160 260 74 161 261 0
28 85 197 238 86 198 239 0
28 85 217 260 86 218 261 0
28 98 127 160 99 128 161 0
28 98 160 238 99 161 239 0
28 98 197 238 99 198 239 0
28 112 143 178 113 144 179 0
28 112 143 217 113 144 218 0
28 112 217 260 113 218 261 0
28 127 160 260 128 161 261 0
28 127 217 260 128 218 261 0
28 143 178 197 144 179 198 0
28 178 197 238 179 198 239 0
