p cnf 276 3164
-11 -29 -79 -34 -84 0
-11 -29 -92 -34 -97 0
-11 -29 -106 -34 -111 0
-11 -29 -191 -34 -196 0
-11 -29 -211 -34 -216 0
-11 -29 -232 -34 -237 0
-11 -29 -254 -34 -259 0
-11 -37 -56 -42 -61 0
-11 -37 -67 -42 -72 0
-11 -37 -106 -42 -111 0
-11 -37 -154 -42 -159 0
-11 -37 -172 -42 -177 0
-11 -37 -232 -42 -237 0
-11 -37 -254 -42 -259 0
-11 -46 -56 -51 -61 0
-11 -46 -67 -51 -72 0
-11 -46 -92 -51 -97 0
-11 -46 -121 -51 -126 0
-11 -46 -137 -51 -142 0
-11 -46 -191 -51 -196 0
-11 -46 -211 -51 -216 0
-11 -56 -67 -61 -72 0
-11 -56 -137 -61 -142 0
-11 -56 -154 -61 -159 0
-11 -56 -191 -61 -196 0
-11 -56 -254 -61 -259 0
-11 -67 -121 -72 -126 0
-11 -67 -172 -72 -177 0
-11 -67 -211 -72 -216 0
-11 -67 -232 -72 -237 0
-11 -79 -92 -84 -97 0
-11 -79 -106 -84 -111 0
-11 -79 -121 -84 -126 0
-11 -79 -137 -84 -142 0
-11 -79 -154 -84 -159 0
-11 -79 -172 -84 -177 0
-11 -92 -137 -97 -142 0
-11 -92 -172 -97 -177 0
-11 -92 -211 -97 -216 0
-11 -92 -254 -97 -259 0
-11 -106 -121 -111 -126 0
-11 -106 -154 -111 -159 0
-11 -106 -191 -111 -196 0
-11 -106 -232 -111 -237 0
-11 -121 -137 -126 -142 0
-11 -121 -172 -126 -177 0
-11 -121 -191 -126 -196 0
-11 -121 -232 -126 -237 0
-11 -137 -154 -142 -159 0
-11 -137 -232 -142 -237 0
-11 -137 -254 -142 -259 0
-11 -154 -172 -159 -177 0
-11 -154 -191 -159 -196 0
-11 -154 -211 -159 -216 0
-11 -172 -211 -177 -216 0
-11 -172 -254 -177 -259 0
-11 -191 -211 -196 -216 0
-11 -191 -254 -196 -259 0
-11 -211 -232 -216 -237 0
-11 -232 -254 -237 -259 0
-29 -79 -35 -85 0
-29 -92 -35 -98 0
-29 -106 -35 -112 0
-29 -191 -35 -197 0
-29 -211 -35 -217 0
-29 -232 -35 -238 0
-29 -254 -35 -260 0
-37 -56 -43 -62 0
-37 -67 -43 -73 0
-37 -106 -43 -112 0
-37 -154 -43 -160 0
-37 -172 -43 -178 0
-37 -232 -43 -238 0
-37 -254 -43 -260 0
-46 -56 -52 -62 0
-46 -67 -52 -73 0
-46 -92 -52 -98 0
-46 -121 -52 -127 0
-46 -137 -52 -143 0
-46 -191 -52 -197 0
-46 -211 -52 -217 0
-56 -67 -62 -73 0
-56 -137 -62 -143 0
-56 -154 -62 -160 0
-56 -191 -62 -197 0
-56 -254 -62 -260 0
-67 -121 -73 -127 0
-67 -172 -73 -178 0
-67 -211 -73 -217 0
-67 -232 -73 -238 0
-79 -92 -85 -98 0
-79 -106 -85 -112 0
-79 -121 -85 -127 0
-79 -137 -85 -143 0
-79 -154 -85 -160 0
-79 -172 -85 -178 0
-92 -137 -98 -143 0
-92 -172 -98 -178 0
-92 -211 -98 -217 0
-92 -254 -98 -260 0
-106 -121 -112 -127 0
-106 -154 -112 -160 0
-106 -191 -112 -197 0
-106 -232 -112 -238 0
-121 -137 -127 -143 0
-121 -172 -127 -178 0
-121 -191 -127 -197 0
-121 -232 -127 -238 0
-137 -154 -143 -160 0
-137 -232 -143 -238 0
-137 -254 -143 -260 0
-154 -172 -160 -178 0
-154 -191 -160 -197 0
-154 -211 -160 -217 0
-172 -211 -178 -217 0
-172 -254 -178 -260 0
-191 -211 -197 -217 0
-191 -254 -197 -260 0
-211 -232 -217 -238 0
-232 -254 -238 -260 0
-29 -79 -36 -86 0
-29 -92 -36 -99 0
-29 -106 -36 -113 0
-29 -191 -36 -198 0
-29 -211 -36 -218 0
-29 -232 -36 -239 0
-29 -254 -36 -261 0
-37 -56 -44 -63 0
-37 -67 -44 -74 0
-37 -106 -44 -113 0
-37 -154 -44 -161 0
-37 -172 -44 -179 0
-37 -232 -44 -239 0
-37 -254 -44 -261 0
-46 -56 -53 -63 0
-46 -67 -53 -74 0
-46 -92 -53 -99 0
-46 -121 -53 -128 0
-46 -137 -53 -144 0
-46 -191 -53 -198 0
-46 -211 -53 -218 0
-56 -67 -63 -74 0
-56 -137 -63 -144 0
-56 -154 -63 -161 0
-56 -191 -63 -198 0
-56 -254 -63 -261 0
-67 -121 -74 -128 0
-67 -172 -74 -179 0
-67 -211 -74 -218 0
-67 -232 -74 -239 0
-79 -92 -86 -99 0
-79 -106 -86 -113 0
-79 -121 -86 -128 0
-79 -137 -86 -144 0
-79 -154 -86 -161 0
-79 -172 -86 -179 0
-92 -137 -99 -144 0
-92 -172 -99 -179 0
-92 -211 -99 -218 0
-92 -254 -99 -261 0
-106 -121 -113 -128 0
-106 -154 -113 -161 0
-106 -191 -113 -198 0
-106 -232 -113 -239 0
-121 -137 -128 -144 0
-121 -172 -128 -179 0
-121 -191 -128 -198 0
-121 -232 -128 -239 0
-137 -154 -144 -161 0
-137 -232 -144 -239 0
-137 -254 -144 -261 0
-154 -172 -161 -179 0
-154 -191 -161 -198 0
-154 -211 -161 -218 0
-172 -211 -179 -218 0
-172 -254 -179 -261 0
-191 -211 -198 -218 0
-191 -254 -198 -261 0
-211 -232 -218 -239 0
-232 -254 -239 -261 0
-29 -79 -92 0
-29 -79 -106 0
-29 -92 -211 0
-29 -92 -254 0
-29 -106 -191 0
-29 -106 -232 0
-29 -191 -211 0
-29 -191 -254 0
-29 -211 -232 0
-29 -232 -254 0
-37 -56 -67 0
-37 -56 -154 0
-37 -56 -254 0
-37 -67 -172 0
-37 -67 -232 0
-37 -106 -154 0
-37 -106 -232 0
-37 -154 -172 0
-37 -172 -254 0
-37 -232 -254 0
-46 -56 -67 0
-46 -56 -137 0
-46 -56 -191 0
-46 -67 -121 0
-46 -67 -211 0
-46 -92 -137 0
-46 -92 -211 0
-46 -121 -137 0
-46 -121 -191 0
-46 -191 -211 0
-56 -137 -154 0
-56 -137 -254 0
-56 -154 -191 0
-56 -191 -254 0
-67 -121 -172 0
-67 -121 -232 0
-67 -172 -211 0
-67 -211 -232 0
-79 -92 -137 0
-79 -92 -172 0
-79 -106 -121 0
-79 -106 -154 0
-79 -121 -137 0
-79 -121 -172 0
-79 -137 -154 0
-79 -154 -172 0
-92 -137 -254 0
-92 -172 -211 0
-92 -172 -254 0
-106 -121 -191 0
-106 -121 -232 0
-106 -154 -191 0
-121 -137 -232 0
-137 -232 -254 0
-154 -172 -211 0
-154 -191 -211 0
-30 -80 -34 -84 0
-30 -93 -34 -97 0
-30 -107 -34 -111 0
-30 -192 -34 -196 0
-30 -212 -34 -216 0
-30 -233 -34 -237 0
-30 -255 -34 -259 0
-38 -57 -42 -61 0
-38 -68 -42 -72 0
-38 -107 -42 -111 0
-38 -155 -42 -159 0
-38 -173 -42 -177 0
-38 -233 -42 -237 0
-38 -255 -42 -259 0
-47 -57 -51 -61 0
-47 -68 -51 -72 0
-47 -93 -51 -97 0
-47 -122 -51 -126 0
-47 -138 -51 -142 0
-47 -192 -51 -196 0
-47 -212 -51 -216 0
-57 -68 -61 -72 0
-57 -138 -61 -142 0
-57 -155 -61 -159 0
-57 -192 -61 -196 0
-57 -255 -61 -259 0
-68 -122 -72 -126 0
-68 -173 -72 -177 0
-68 -212 -72 -216 0
-68 -233 -72 -237 0
-80 -93 -84 -97 0
-80 -107 -84 -111 0
-80 -122 -84 -126 0
-80 -138 -84 -142 0
-80 -155 -84 -159 0
-80 -173 -84 -177 0
-93 -138 -97 -142 0
-93 -173 -97 -177 0
-93 -212 -97 -216 0
-93 -255 -97 -259 0
-107 -122 -111 -126 0
-107 -155 -111 -159 0
-107 -192 -111 -196 0
-107 -233 -111 -237 0
-122 -138 -126 -142 0
-122 -173 -126 -177 0
-122 -192 -126 -196 0
-122 -233 -126 -237 0
-138 -155 -142 -159 0
-138 -233 -142 -237 0
-138 -255 -142 -259 0
-155 -173 -159 -177 0
-155 -192 -159 -196 0
-155 -212 -159 -216 0
-173 -212 -177 -216 0
-173 -255 -177 -259 0
-192 -212 -196 -216 0
-192 -255 -196 -259 0
-212 -233 -216 -237 0
-233 -255 -237 -259 0
-17 -30 -80 -35 -85 0
-17 -30 -93 -35 -98 0
-17 -30 -107 -35 -112 0
-17 -30 -192 -35 -197 0
-17 -30 -212 -35 -217 0
-17 -30 -233 -35 -238 0
-17 -30 -255 -35 -260 0
-17 -38 -57 -43 -62 0
-17 -38 -68 -43 -73 0
-17 -38 -107 -43 -112 0
-17 -38 -155 -43 -160 0
-17 -38 -173 -43 -178 0
-17 -38 -233 -43 -238 0
-17 -38 -255 -43 -260 0
-17 -47 -57 -52 -62 0
-17 -47 -68 -52 -73 0
-17 -47 -93 -52 -98 0
-17 -47 -122 -52 -127 0
-17 -47 -138 -52 -143 0
-17 -47 -192 -52 -197 0
-17 -47 -212 -52 -217 0
-17 -57 -68 -62 -73 0
-17 -57 -138 -62 -143 0
-17 -57 -155 -62 -160 0
-17 -57 -192 -62 -197 0
-17 -57 -255 -62 -260 0
-17 -68 -122 -73 -127 0
-17 -68 -173 -73 -178 0
-17 -68 -212 -73 -217 0
-17 -68 -233 -73 -238 0
-17 -80 -93 -85 -98 0
-17 -80 -107 -85 -112 0
-17 -80 -122 -85 -127 0
-17 -80 -138 -85 -143 0
-17 -80 -155 -85 -160 0
-17 -80 -173 -85 -178 0
-17 -93 -138 -98 -143 0
-17 -93 -173 -98 -178 0
-17 -93 -212 -98 -217 0
-17 -93 -255 -98 -260 0
-17 -107 -122 -112 -127 0
-17 -107 -155 -112 -160 0
-17 -107 -192 -112 -197 0
-17 -107 -233 -112 -238 0
-17 -122 -138 -127 -143 0
-17 -122 -173 -127 -178 0
-17 -122 -192 -127 -197 0
-17 -122 -233 -127 -238 0
-17 -138 -155 -143 -160 0
-17 -138 -233 -143 -238 0
-17 -138 -255 -143 -260 0
-17 -155 -173 -160 -178 0
-17 -155 -192 -160 -197 0
-17 -155 -212 -160 -217 0
-17 -173 -212 -178 -217 0
-17 -173 -255 -178 -260 0
-17 -192 -212 -197 -217 0
-17 -192 -255 -197 -260 0
-17 -212 -233 -217 -238 0
-17 -233 -255 -238 -260 0
-30 -80 -36 -86 0
-30 -93 -36 -99 0
-30 -107 -36 -113 0
-30 -192 -36 -198 0
-30 -212 -36 -218 0
-30 -233 -36 -239 0
-30 -255 -36 -261 0
-38 -57 -44 -63 0
-38 -68 -44 -74 0
-38 -107 -44 -113 0
-38 -155 -44 -161 0
-38 -173 -44 -179 0
-38 -233 -44 -239 0
-38 -255 -44 -261 0
-47 -57 -53 -63 0
-47 -68 -53 -74 0
-47 -93 -53 -99 0
-47 -122 -53 -128 0
-47 -138 -53 -144 0
-47 -192 -53 -198 0
-47 -212 -53 -218 0
-57 -68 -63 -74 0
-57 -138 -63 -144 0
-57 -155 -63 -161 0
-57 -192 -63 -198 0
-57 -255 -63 -261 0
-68 -122 -74 -128 0
-68 -173 -74 -179 0
-68 -212 -74 -218 0
-68 -233 -74 -239 0
-80 -93 -86 -99 0
-80 -107 -86 -113 0
-80 -122 -86 -128 0
-80 -138 -86 -144 0
-80 -155 -86 -161 0
-80 -173 -86 -179 0
-93 -138 -99 -144 0
-93 -173 -99 -179 0
-93 -212 -99 -218 0
-93 -255 -99 -261 0
-107 -122 -113 -128 0
-107 -155 -113 -161 0
-107 -192 -113 -198 0
-107 -233 -113 -239 0
-122 -138 -128 -144 0
-122 -173 -128 -179 0
-122 -192 -128 -198 0
-122 -233 -128 -239 0
-138 -155 -144 -161 0
-138 -233 -144 -239 0
-138 -255 -144 -261 0
-155 -173 -161 -179 0
-155 -192 -161 -198 0
-155 -212 -161 -218 0
-173 -212 -179 -218 0
-173 -255 -179 -261 0
-192 -212 -198 -218 0
-192 -255 -198 -261 0
-212 -233 -218 -239 0
-233 -255 -239 -261 0
-30 -80 -93 0
-30 -80 -107 0
-30 -93 -212 0
-30 -93 -255 0
-30 -107 -192 0
-30 -107 -233 0
-30 -192 -212 0
-30 -192 -255 0
-30 -212 -233 0
-30 -233 -255 0
-38 -57 -68 0
-38 -57 -155 0
-38 -57 -255 0
-38 -68 -173 0
-38 -68 -233 0
-38 -107 -155 0
-38 -107 -233 0
-38 -155 -173 0
-38 -173 -255 0
-38 -233 -255 0
-47 -57 -68 0
-47 -57 -138 0
-47 -57 -192 0
-47 -68 -122 0
-47 -68 -212 0
-47 -93 -138 0
-47 -93 -212 0
-47 -122 -138 0
-47 -122 -192 0
-47 -192 -212 0
-57 -138 -155 0
-57 -138 -255 0
-57 -155 -192 0
-57 -192 -255 0
-68 -122 -173 0
-68 -122 -233 0
-68 -173 -212 0
-68 -212 -233 0
-80 -93 -138 0
-80 -93 -173 0
-80 -107 -122 0
-80 -107 -155 0
-80 -122 -138 0
-80 -122 -173 0
-80 -138 -155 0
-80 -155 -173 0
-93 -138 -255 0
-93 -173 -212 0
-93 -173 -255 0
-107 -122 -192 0
-107 -122 -233 0
-107 -155 -192 0
-122 -138 -233 0
-138 -233 -255 0
-155 -173 -212 0
-155 -192 -212 0
-31 -81 -33 -83 0
-31 -94 -33 -96 0
-31 -108 -33 -110 0
-31 -193 -33 -195 0
-31 -213 -33 -215 0
-31 -234 -33 -236 0
-31 -256 -33 -258 0
-39 -58 -41 -60 0
-39 -69 -41 -71 0
-39 -108 -41 -110 0
-39 -156 -41 -158 0
-39 -174 -41 -176 0
-39 -234 -41 -236 0
-39 -256 -41 -258 0
-48 -58 -50 -60 0
-48 -69 -50 -71 0
-48 -94 -50 -96 0
-48 -123 -50 -125 0
-48 -139 -50 -141 0
-48 -193 -50 -195 0
-48 -213 -50 -215 0
-58 -69 -60 -71 0
-58 -139 -60 -141 0
-58 -156 -60 -158 0
-58 -193 -60 -195 0
-58 -256 -60 -258 0
-69 -123 -71 -125 0
-69 -174 -71 -176 0
-69 -213 -71 -215 0
-69 -234 -71 -236 0
-81 -94 -83 -96 0
-81 -108 -83 -110 0
-81 -123 -83 -125 0
-81 -139 -83 -141 0
-81 -156 -83 -158 0
-81 -174 -83 -176 0
-94 -139 -96 -141 0
-94 -174 -96 -176 0
-94 -213 -96 -215 0
-94 -256 -96 -258 0
-108 -123 -110 -125 0
-108 -156 -110 -158 0
-108 -193 -110 -195 0
-108 -234 -110 -236 0
-123 -139 -125 -141 0
-123 -174 -125 -176 0
-123 -193 -125 -195 0
-123 -234 -125 -236 0
-139 -156 -141 -158 0
-139 -234 -141 -236 0
-139 -256 -141 -258 0
-156 -174 -158 -176 0
-156 -193 -158 -195 0
-156 -213 -158 -215 0
-174 -213 -176 -215 0
-174 -256 -176 -258 0
-193 -213 -195 -215 0
-193 -256 -195 -258 0
-213 -234 -215 -236 0
-234 -256 -236 -258 0
-31 -81 -34 -84 0
-31 -94 -34 -97 0
-31 -108 -34 -111 0
-31 -193 -34 -196 0
-31 -213 -34 -216 0
-31 -234 -34 -237 0
-31 -256 -34 -259 0
-39 -58 -42 -61 0
-39 -69 -42 -72 0
-39 -108 -42 -111 0
-39 -156 -42 -159 0
-39 -174 -42 -177 0
-39 -234 -42 -237 0
-39 -256 -42 -259 0
-48 -58 -51 -61 0
-48 -69 -51 -72 0
-48 -94 -51 -97 0
-48 -123 -51 -126 0
-48 -139 -51 -142 0
-48 -193 -51 -196 0
-48 -213 -51 -216 0
-58 -69 -61 -72 0
-58 -139 -61 -142 0
-58 -156 -61 -159 0
-58 -193 -61 -196 0
-58 -256 -61 -259 0
-69 -123 -72 -126 0
-69 -174 -72 -177 0
-69 -213 -72 -216 0
-69 -234 -72 -237 0
-81 -94 -84 -97 0
-81 -108 -84 -111 0
-81 -123 -84 -126 0
-81 -139 -84 -142 0
-81 -156 -84 -159 0
-81 -174 -84 -177 0
-94 -139 -97 -142 0
-94 -174 -97 -177 0
-94 -213 -97 -216 0
-94 -256 -97 -259 0
-108 -123 -111 -126 0
-108 -156 -111 -159 0
-108 -193 -111 -196 0
-108 -234 -111 -237 0
-123 -139 -126 -142 0
-123 -174 -126 -177 0
-123 -193 -126 -196 0
-123 -234 -126 -237 0
-139 -156 -142 -159 0
-139 -234 -142 -237 0
-139 -256 -142 -259 0
-156 -174 -159 -177 0
-156 -193 -159 -196 0
-156 -213 -159 -216 0
-174 -213 -177 -216 0
-174 -256 -177 -259 0
-193 -213 -196 -216 0
-193 -256 -196 -259 0
-213 -234 -216 -237 0
-234 -256 -237 -259 0
-24 -31 -81 -36 -86 0
-24 -31 -94 -36 -99 0
-24 -31 -108 -36 -113 0
-24 -31 -193 -36 -198 0
-24 -31 -213 -36 -218 0
-24 -31 -234 -36 -239 0
-24 -31 -256 -36 -261 0
-24 -39 -58 -44 -63 0
-24 -39 -69 -44 -74 0
-24 -39 -108 -44 -113 0
-24 -39 -156 -44 -161 0
-24 -39 -174 -44 -179 0
-24 -39 -234 -44 -239 0
-24 -39 -256 -44 -261 0
-24 -48 -58 -53 -63 0
-24 -48 -69 -53 -74 0
-24 -48 -94 -53 -99 0
-24 -48 -123 -53 -128 0
-24 -48 -139 -53 -144 0
-24 -48 -193 -53 -198 0
-24 -48 -213 -53 -218 0
-24 -58 -69 -63 -74 0
-24 -58 -139 -63 -144 0
-24 -58 -156 -63 -161 0
-24 -58 -193 -63 -198 0
-24 -58 -256 -63 -261 0
-24 -69 -123 -74 -128 0
-24 -69 -174 -74 -179 0
-24 -69 -213 -74 -218 0
-24 -69 -234 -74 -239 0
-24 -81 -94 -86 -99 0
-24 -81 -108 -86 -113 0
-24 -81 -123 -86 -128 0
-24 -81 -139 -86 -144 0
-24 -81 -156 -86 -161 0
-24 -81 -174 -86 -179 0
-24 -94 -139 -99 -144 0
-24 -94 -174 -99 -179 0
-24 -94 -213 -99 -218 0
-24 -94 -256 -99 -261 0
-24 -108 -123 -113 -128 0
-24 -108 -156 -113 -161 0
-24 -108 -193 -113 -198 0
-24 -108 -234 -113 -239 0
-24 -123 -139 -128 -144 0
-24 -123 -174 -128 -179 0
-24 -123 -193 -128 -198 0
-24 -123 -234 -128 -239 0
-24 -139 -156 -144 -161 0
-24 -139 -234 -144 -239 0
-24 -139 -256 -144 -261 0
-24 -156 -174 -161 -179 0
-24 -156 -193 -161 -198 0
-24 -156 -213 -161 -218 0
-24 -174 -213 -179 -218 0
-24 -174 -256 -179 -261 0
-24 -193 -213 -198 -218 0
-24 -193 -256 -198 -261 0
-24 -213 -234 -218 -239 0
-24 -234 -256 -239 -261 0
-31 -81 -94 0
-31 -81 -108 0
-31 -94 -213 0
-31 -94 -256 0
-31 -108 -193 0
-31 -108 -234 0
-31 -193 -213 0
-31 -193 -256 0
-31 -213 -234 0
-31 -234 -256 0
-39 -58 -69 0
-39 -58 -156 0
-39 -58 -256 0
-39 -69 -174 0
-39 -69 -234 0
-39 -108 -156 0
-39 -108 -234 0
-39 -156 -174 0
-39 -174 -256 0
-39 -234 -256 0
-48 -58 -69 0
-48 -58 -139 0
-48 -58 -193 0
-48 -69 -123 0
-48 -69 -213 0
-48 -94 -139 0
-48 -94 -213 0
-48 -123 -139 0
-48 -123 -193 0
-48 -193 -213 0
-58 -139 -156 0
-58 -139 -256 0
-58 -156 -193 0
-58 -193 -256 0
-69 -123 -174 0
-69 -123 -234 0
-69 -174 -213 0
-69 -213 -234 0
-81 -94 -139 0
-81 -94 -174 0
-81 -108 -123 0
-81 -108 -156 0
-81 -123 -139 0
-81 -123 -174 0
-81 -139 -156 0
-81 -156 -174 0
-94 -139 -256 0
-94 -174 -213 0
-94 -174 -256 0
-108 -123 -193 0
-108 -123 -234 0
-108 -156 -193 0
-123 -139 -234 0
-139 -234 -256 0
-156 -174 -213 0
-156 -193 -213 0
-32 -82 -33 -83 0
-32 -95 -33 -96 0
-32 -109 -33 -110 0
-32 -194 -33 -195 0
-32 -214 -33 -215 0
-32 -235 -33 -236 0
-32 -257 -33 -258 0
-40 -59 -41 -60 0
-40 -70 -41 -71 0
-40 -109 -41 -110 0
-40 -157 -41 -158 0
-40 -175 -41 -176 0
-40 -235 -41 -236 0
-40 -257 -41 -258 0
-49 -59 -50 -60 0
-49 -70 -50 -71 0
-49 -95 -50 -96 0
-49 -124 -50 -125 0
-49 -140 -50 -141 0
-49 -194 -50 -195 0
-49 -214 -50 -215 0
-59 -70 -60 -71 0
-59 -140 -60 -141 0
-59 -157 -60 -158 0
-59 -194 -60 -195 0
-59 -257 -60 -258 0
-70 -124 -71 -125 0
-70 -175 -71 -176 0
-70 -214 -71 -215 0
-70 -235 -71 -236 0
-82 -95 -83 -96 0
-82 -109 -83 -110 0
-82 -124 -83 -125 0
-82 -140 -83 -141 0
-82 -157 -83 -158 0
-82 -175 -83 -176 0
-95 -140 -96 -141 0
-95 -175 -96 -176 0
-95 -214 -96 -215 0
-95 -257 -96 -258 0
-109 -124 -110 -125 0
-109 -157 -110 -158 0
-109 -194 -110 -195 0
-109 -235 -110 -236 0
-124 -140 -125 -141 0
-124 -175 -125 -176 0
-124 -194 -125 -195 0
-124 -235 -125 -236 0
-140 -157 -141 -158 0
-140 -235 -141 -236 0
-140 -257 -141 -258 0
-157 -175 -158 -176 0
-157 -194 -158 -195 0
-157 -214 -158 -215 0
-175 -214 -176 -215 0
-175 -257 -176 -258 0
-194 -214 -195 -215 0
-194 -257 -195 -258 0
-214 -235 -215 -236 0
-235 -257 -236 -258 0
-14 -32 -82 -34 -84 0
-14 -32 -95 -34 -97 0
-14 -32 -109 -34 -111 0
-14 -32 -194 -34 -196 0
-14 -32 -214 -34 -216 0
-14 -32 -235 -34 -237 0
-14 -32 -257 -34 -259 0
-14 -40 -59 -42 -61 0
-14 -40 -70 -42 -72 0
-14 -40 -109 -42 -111 0
-14 -40 -157 -42 -159 0
-14 -40 -175 -42 -177 0
-14 -40 -235 -42 -237 0
-14 -40 -257 -42 -259 0
-14 -49 -59 -51 -61 0
-14 -49 -70 -51 -72 0
-14 -49 -95 -51 -97 0
-14 -49 -124 -51 -126 0
-14 -49 -140 -51 -142 0
-14 -49 -194 -51 -196 0
-14 -49 -214 -51 -216 0
-14 -59 -70 -61 -72 0
-14 -59 -140 -61 -142 0
-14 -59 -157 -61 -159 0
-14 -59 -194 -61 -196 0
-14 -59 -257 -61 -259 0
-14 -70 -124 -72 -126 0
-14 -70 -175 -72 -177 0
-14 -70 -214 -72 -216 0
-14 -70 -235 -72 -237 0
-14 -82 -95 -84 -97 0
-14 -82 -109 -84 -111 0
-14 -82 -124 -84 -126 0
-14 -82 -140 -84 -142 0
-14 -82 -157 -84 -159 0
-14 -82 -175 -84 -177 0
-14 -95 -140 -97 -142 0
-14 -95 -175 -97 -177 0
-14 -95 -214 -97 -216 0
-14 -95 -257 -97 -259 0
-14 -109 -124 -111 -126 0
-14 -109 -157 -111 -159 0
-14 -109 -194 -111 -196 0
-14 -109 -235 -111 -237 0
-14 -124 -140 -126 -142 0
-14 -124 -175 -126 -177 0
-14 -124 -194 -126 -196 0
-14 -124 -235 -126 -237 0
-14 -140 -157 -142 -159 0
-14 -140 -235 -142 -237 0
-14 -140 -257 -142 -259 0
-14 -157 -175 -159 -177 0
-14 -157 -194 -159 -196 0
-14 -157 -214 -159 -216 0
-14 -175 -214 -177 -216 0
-14 -175 -257 -177 -259 0
-14 -194 -214 -196 -216 0
-14 -194 -257 -196 -259 0
-14 -214 -235 -216 -237 0
-14 -235 -257 -237 -259 0
-32 -82 -36 -86 0
-32 -95 -36 -99 0
-32 -109 -36 -113 0
-32 -194 -36 -198 0
-32 -214 -36 -218 0
-32 -235 -36 -239 0
-32 -257 -36 -261 0
-40 -59 -44 -63 0
-40 -70 -44 -74 0
-40 -109 -44 -113 0
-40 -157 -44 -161 0
-40 -175 -44 -179 0
-40 -235 -44 -239 0
-40 -257 -44 -261 0
-49 -59 -53 -63 0
-49 -70 -53 -74 0
-49 -95 -53 -99 0
-49 -124 -53 -128 0
-49 -140 -53 -144 0
-49 -194 -53 -198 0
-49 -214 -53 -218 0
-59 -70 -63 -74 0
-59 -140 -63 -144 0
-59 -157 -63 -161 0
-59 -194 -63 -198 0
-59 -257 -63 -261 0
-70 -124 -74 -128 0
-70 -175 -74 -179 0
-70 -214 -74 -218 0
-70 -235 -74 -239 0
-82 -95 -86 -99 0
-82 -109 -86 -113 0
-82 -124 -86 -128 0
-82 -140 -86 -144 0
-82 -157 -86 -161 0
-82 -175 -86 -179 0
-95 -140 -99 -144 0
-95 -175 -99 -179 0
-95 -214 -99 -218 0
-95 -257 -99 -261 0
-109 -124 -113 -128 0
-109 -157 -113 -161 0
-109 -194 -113 -198 0
-109 -235 -113 -239 0
-124 -140 -128 -144 0
-124 -175 -128 -179 0
-124 -194 -128 -198 0
-124 -235 -128 -239 0
-140 -157 -144 -161 0
-140 -235 -144 -239 0
-140 -257 -144 -261 0
-157 -175 -161 -179 0
-157 -194 -161 -198 0
-157 -214 -161 -218 0
-175 -214 -179 -218 0
-175 -257 -179 -261 0
-194 -214 -198 -218 0
-194 -257 -198 -261 0
-214 -235 -218 -239 0
-235 -257 -239 -261 0
-32 -82 -95 0
-32 -82 -109 0
-32 -95 -214 0
-32 -95 -257 0
-32 -109 -194 0
-32 -109 -235 0
-32 -194 -214 0
-32 -194 -257 0
-32 -214 -235 0
-32 -235 -257 0
-40 -59 -70 0
-40 -59 -157 0
-40 -59 -257 0
-40 -70 -175 0
-40 -70 -235 0
-40 -109 -157 0
-40 -109 -235 0
-40 -157 -175 0
-40 -175 -257 0
-40 -235 -257 0
-49 -59 -70 0
-49 -59 -140 0
-49 -59 -194 0
-49 -70 -124 0
-49 -70 -214 0
-49 -95 -140 0
-49 -95 -214 0
-49 -124 -140 0
-49 -124 -194 0
-49 -194 -214 0
-59 -140 -157 0
-59 -140 -257 0
-59 -157 -194 0
-59 -194 -257 0
-70 -124 -175 0
-70 -124 -235 0
-70 -175 -214 0
-70 -214 -235 0
-82 -95 -140 0
-82 -95 -175 0
-82 -109 -124 0
-82 -109 -157 0
-82 -124 -140 0
-82 -124 -175 0
-82 -140 -157 0
-82 -157 -175 0
-95 -140 -257 0
-95 -175 -214 0
-95 -175 -257 0
-109 -124 -194 0
-109 -124 -235 0
-109 -157 -194 0
-124 -140 -235 0
-140 -235 -257 0
-157 -175 -214 0
-157 -194 -214 0
-33 -83 -35 -85 0
-33 -96 -35 -98 0
-33 -110 -35 -112 0
-33 -195 -35 -197 0
-33 -215 -35 -217 0
-33 -236 -35 -238 0
-33 -258 -35 -260 0
-41 -60 -43 -62 0
-41 -71 -43 -73 0
-41 -110 -43 -112 0
-41 -158 -43 -160 0
-41 -176 -43 -178 0
-41 -236 -43 -238 0
-41 -258 -43 -260 0
-50 -60 -52 -62 0
-50 -71 -52 -73 0
-50 -96 -52 -98 0
-50 -125 -52 -127 0
-50 -141 -52 -143 0
-50 -195 -52 -197 0
-50 -215 -52 -217 0
-60 -71 -62 -73 0
-60 -141 -62 -143 0
-60 -158 -62 -160 0
-60 -195 -62 -197 0
-60 -258 -62 -260 0
-71 -125 -73 -127 0
-71 -176 -73 -178 0
-71 -215 -73 -217 0
-71 -236 -73 -238 0
-83 -96 -85 -98 0
-83 -110 -85 -112 0
-83 -125 -85 -127 0
-83 -141 -85 -143 0
-83 -158 -85 -160 0
-83 -176 -85 -178 0
-96 -141 -98 -143 0
-96 -176 -98 -178 0
-96 -215 -98 -217 0
-96 -258 -98 -260 0
-110 -125 -112 -127 0
-110 -158 -112 -160 0
-110 -195 -112 -197 0
-110 -236 -112 -238 0
-125 -141 -127 -143 0
-125 -176 -127 -178 0
-125 -195 -127 -197 0
-125 -236 -127 -238 0
-141 -158 -143 -160 0
-141 -236 -143 -238 0
-141 -258 -143 -260 0
-158 -176 -160 -178 0
-158 -195 -160 -197 0
-158 -215 -160 -217 0
-176 -215 -178 -217 0
-176 -258 -178 -260 0
-195 -215 -197 -217 0
-195 -258 -197 -260 0
-215 -236 -217 -238 0
-236 -258 -238 -260 0
-33 -83 -96 0
-33 -83 -110 0
-33 -96 -215 0
-33 -96 -258 0
-33 -110 -195 0
-33 -110 -236 0
-33 -195 -215 0
-33 -195 -258 0
-33 -215 -236 0
-33 -236 -258 0
-41 -60 -71 0
-41 -60 -158 0
-41 -60 -258 0
-41 -71 -176 0
-41 -71 -236 0
-41 -110 -158 0
-41 -110 -236 0
-41 -158 -176 0
-41 -176 -258 0
-41 -236 -258 0
-50 -60 -71 0
-50 -60 -141 0
-50 -60 -195 0
-50 -71 -125 0
-50 -71 -215 0
-50 -96 -141 0
-50 -96 -215 0
-50 -125 -141 0
-50 -125 -195 0
-50 -195 -215 0
-60 -141 -158 0
-60 -141 -258 0
-60 -158 -195 0
-60 -195 -258 0
-71 -125 -176 0
-71 -125 -236 0
-71 -176 -215 0
-71 -215 -236 0
-83 -96 -141 0
-83 -96 -176 0
-83 -110 -125 0
-83 -110 -158 0
-83 -125 -141 0
-83 -125 -176 0
-83 -141 -158 0
-83 -158 -176 0
-96 -141 -258 0
-96 -176 -215 0
-96 -176 -258 0
-110 -125 -195 0
-110 -125 -236 0
-110 -158 -195 0
-125 -141 -236 0
-141 -236 -258 0
-158 -176 -215 0
-158 -195 -215 0
-34 -84 -97 0
-34 -84 -111 0
-34 -97 -216 0
-34 -97 -259 0
-34 -111 -196 0
-34 -111 -237 0
-34 -196 -216 0
-34 -196 -259 0
-34 -216 -237 0
-34 -237 -259 0
-42 -61 -72 0
-42 -61 -159 0
-42 -61 -259 0
-42 -72 -177 0
-42 -72 -237 0
-42 -111 -159 0
-42 -111 -237 0
-42 -159 -177 0
-42 -177 -259 0
-42 -237 -259 0
-51 -61 -72 0
-51 -61 -142 0
-51 -61 -196 0
-51 -72 -126 0
-51 -72 -216 0
-51 -97 -142 0
-51 -97 -216 0
-51 -126 -142 0
-51 -126 -196 0
-51 -196 -216 0
-61 -142 -159 0
-61 -142 -259 0
-61 -159 -196 0
-61 -196 -259 0
-72 -126 -177 0
-72 -126 -237 0
-72 -177 -216 0
-72 -216 -237 0
-84 -97 -142 0
-84 -97 -177 0
-84 -111 -126 0
-84 -111 -159 0
-84 -126 -142 0
-84 -126 -177 0
-84 -142 -159 0
-84 -159 -177 0
-97 -142 -259 0
-97 -177 -216 0
-97 -177 -259 0
-111 -126 -196 0
-111 -126 -237 0
-111 -159 -196 0
-126 -142 -237 0
-142 -237 -259 0
-159 -177 -216 0
-159 -196 -216 0
-35 -85 -98 0
-35 -85 -112 0
-35 -98 -217 0
-35 -98 -260 0
-35 -112 -197 0
-35 -112 -238 0
-35 -197 -217 0
-35 -197 -260 0
-35 -217 -238 0
-35 -238 -260 0
-43 -62 -73 0
-43 -62 -160 0
-43 -62 -260 0
-43 -73 -178 0
-43 -73 -238 0
-43 -112 -160 0
-43 -112 -238 0
-43 -160 -178 0
-43 -178 -260 0
-43 -238 -260 0
-52 -62 -73 0
-52 -62 -143 0
-52 -62 -197 0
-52 -73 -127 0
-52 -73 -217 0
-52 -98 -143 0
-52 -98 -217 0
-52 -127 -143 0
-52 -127 -197 0
-52 -197 -217 0
-62 -143 -160 0
-62 -143 -260 0
-62 -160 -197 0
-62 -197 -260 0
-73 -127 -178 0
-73 -127 -238 0
-73 -178 -217 0
-73 -217 -238 0
-85 -98 -143 0
-85 -98 -178 0
-85 -112 -127 0
-85 -112 -160 0
-85 -127 -143 0
-85 -127 -178 0
-85 -143 -160 0
-85 -160 -178 0
-98 -143 -260 0
-98 -178 -217 0
-98 -178 -260 0
-112 -127 -197 0
-112 -127 -238 0
-112 -160 -197 0
-127 -143 -238 0
-143 -238 -260 0
-160 -178 -217 0
-160 -197 -217 0
-36 -86 -99 0
-36 -86 -113 0
-36 -99 -218 0
-36 -99 -261 0
-36 -113 -198 0
-36 -113 -239 0
-36 -198 -218 0
-36 -198 -261 0
-36 -218 -239 0
-36 -239 -261 0
-44 -63 -74 0
-44 -63 -161 0
-44 -63 -261 0
-44 -74 -179 0
-44 -74 -239 0
-44 -113 -161 0
-44 -113 -239 0
-44 -161 -179 0
-44 -179 -261 0
-44 -239 -261 0
-53 -63 -74 0
-53 -63 -144 0
-53 -63 -198 0
-53 -74 -128 0
-53 -74 -218 0
-53 -99 -144 0
-53 -99 -218 0
-53 -128 -144 0
-53 -128 -198 0
-53 -198 -218 0
-63 -144 -161 0
-63 -144 -261 0
-63 -161 -198 0
-63 -198 -261 0
-74 -128 -179 0
-74 -128 -239 0
-74 -179 -218 0
-74 -218 -239 0
-86 -99 -144 0
-86 -99 -179 0
-86 -113 -128 0
-86 -113 -161 0
-86 -128 -144 0
-86 -128 -179 0
-86 -144 -161 0
-86 -161 -179 0
-99 -144 -261 0
-99 -179 -218 0
-99 -179 -261 0
-113 -128 -198 0
-113 -128 -239 0
-113 -161 -198 0
-128 -144 -239 0
-144 -239 -261 0
-161 -179 -218 0
-161 -198 -218 0
29 30 31 32 0
37 38 39 40 0
46 47 48 49 0
56 57 58 59 0
67 68 69 70 0
79 80 81 82 0
92 93 94 95 0
106 107 108 109 0
121 122 123 124 0
137 138 139 140 0
154 155 156 157 0
172 173 174 175 0
191 192 193 194 0
211 212 213 214 0
232 233 234 235 0
254 255 256 257 0
29 37 30 38 31 39 0
29 46 30 47 31 48 0
29 56 30 57 31 58 0
29 67 30 68 31 69 0
29 121 30 122 31 123 0
29 137 30 138 31 139 0
29 154 30 155 31 156 0
29 172 30 173 31 174 0
37 46 38 47 39 48 0
37 79 38 80 39 81 0
37 92 38 93 39 94 0
37 121 38 122 39 123 0
37 137 38 138 39 139 0
37 191 38 192 39 193 0
37 211 38 212 39 213 0
46 79 47 80 48 81 0
46 106 47 107 48 108 0
46 154 47 155 48 156 0
46 172 47 173 48 174 0
46 232 47 233 48 234 0
46 254 47 255 48 256 0
56 79 57 80 58 81 0
56 92 57 93 58 94 0
56 106 57 107 58 108 0
56 121 57 122 58 123 0
56 172 57 173 58 174 0
56 211 57 212 58 213 0
56 232 57 233 58 234 0
67 79 68 80 69 81 0
67 92 68 93 69 94 0
67 106 68 107 69 108 0
67 137 68 138 69 139 0
67 154 68 155 69 156 0
67 191 68 192 69 193 0
67 254 68 255 69 256 0
79 191 80 192 81 193 0
79 211 80 212 81 213 0
79 232 80 233 81 234 0
79 254 80 255 81 256 0
92 106 93 107 94 108 0
92 121 93 122 94 123 0
92 154 93 155 94 156 0
92 191 93 192 94 193 0
92 232 93 233 94 234 0
106 137 107 138 108 139 0
106 172 107 173 108 174 0
106 211 107 212 108 213 0
106 254 107 255 108 256 0
121 154 122 155 123 156 0
121 211 122 212 123 213 0
121 254 122 255 123 256 0
137 172 138 173 139 174 0
137 191 138 192 139 193 0
137 211 138 212 139 213 0
154 232 155 233 156 234 0
154 254 155 255 156 256 0
172 191 173 192 174 193 0
172 232 173 233 174 234 0
191 232 192 233 193 234 0
211 254 212 255 213 256 0
29 37 30 38 32 40 0
29 46 30 47 32 49 0
29 56 30 57 32 59 0
29 67 30 68 32 70 0
29 121 30 122 32 124 0
29 137 30 138 32 140 0
29 154 30 155 32 157 0
29 172 30 173 32 175 0
37 46 38 47 40 49 0
37 79 38 80 40 82 0
37 92 38 93 40 95 0
37 121 38 122 40 124 0
37 137 38 138 40 140 0
37 191 38 192 40 194 0
37 211 38 212 40 214 0
46 79 47 80 49 82 0
46 106 47 107 49 109 0
46 154 47 155 49 157 0
46 172 47 173 49 175 0
46 232 47 233 49 235 0
46 254 47 255 49 257 0
56 79 57 80 59 82 0
56 92 57 93 59 95 0
56 106 57 107 59 109 0
56 121 57 122 59 124 0
56 172 57 173 59 175 0
56 211 57 212 59 214 0
56 232 57 233 59 235 0
67 79 68 80 70 82 0
67 92 68 93 70 95 0
67 106 68 107 70 109 0
67 137 68 138 70 140 0
67 154 68 155 70 157 0
67 191 68 192 70 194 0
67 254 68 255 70 257 0
79 191 80 192 82 194 0
79 211 80 212 82 214 0
79 232 80 233 82 235 0
79 254 80 255 82 257 0
92 106 93 107 95 109 0
92 121 93 122 95 124 0
92 154 93 155 95 157 0
92 191 93 192 95 194 0
92 232 93 233 95 235 0
106 137 107 138 109 140 0
106 172 107 173 109 175 0
106 211 107 212 109 214 0
106 254 107 255 109 257 0
121 154 122 155 124 157 0
121 211 122 212 124 214 0
121 254 122 255 124 257 0
137 172 138 173 140 175 0
137 191 138 192 140 194 0
137 211 138 212 140 214 0
154 232 155 233 157 235 0
154 254 155 255 157 257 0
172 191 173 192 175 194 0
172 232 173 233 175 235 0
191 232 192 233 194 235 0
211 254 212 255 214 257 0
29 37 30 38 33 41 0
29 46 30 47 33 50 0
29 56 30 57 33 60 0
29 67 30 68 33 71 0
29 121 30 122 33 125 0
29 137 30 138 33 141 0
29 154 30 155 33 158 0
29 172 30 173 33 176 0
37 46 38 47 41 50 0
37 79 38 80 41 83 0
37 92 38 93 41 96 0
37 121 38 122 41 125 0
37 137 38 138 41 141 0
37 191 38 192 41 195 0
37 211 38 212 41 215 0
46 79 47 80 50 83 0
46 106 47 107 50 110 0
46 154 47 155 50 158 0
46 172 47 173 50 176 0
46 232 47 233 50 236 0
46 254 47 255 50 258 0
56 79 57 80 60 83 0
56 92 57 93 60 96 0
56 106 57 107 60 110 0
56 121 57 122 60 125 0
56 172 57 173 60 176 0
56 211 57 212 60 215 0
56 232 57 233 60 236 0
67 79 68 80 71 83 0
67 92 68 93 71 96 0
67 106 68 107 71 110 0
67 137 68 138 71 141 0
67 154 68 155 71 158 0
67 191 68 192 71 195 0
67 254 68 255 71 258 0
79 191 80 192 83 195 0
79 211 80 212 83 215 0
79 232 80 233 83 236 0
79 254 80 255 83 258 0
92 106 93 107 96 110 0
92 121 93 122 96 125 0
92 154 93 155 96 158 0
92 191 93 192 96 195 0
92 232 93 233 96 236 0
106 137 107 138 110 141 0
106 172 107 173 110 176 0
106 211 107 212 110 215 0
106 254 107 255 110 258 0
121 154 122 155 125 158 0
121 211 122 212 125 215 0
121 254 122 255 125 258 0
137 172 138 173 141 176 0
137 191 138 192 141 195 0
137 211 138 212 141 215 0
154 232 155 233 158 236 0
154 254 155 255 158 258 0
172 191 173 192 176 195 0
172 232 173 233 176 236 0
191 232 192 233 195 236 0
211 254 212 255 215 258 0
29 37 46 30 38 47 0
29 37 121 30 38 122 0
29 37 137 30 38 138 0
29 46 154 30 47 155 0
29 46 172 30 47 173 0
29 56 121 30 57 122 0
29 56 172 30 57 173 0
29 67 137 30 68 138 0
29 67 154 30 68 155 0
29 121 154 30 122 155 0
29 137 172 30 138 173 0
37 46 79 38 47 80 0
37 79 191 38 80 192 0
37 79 211 38 80 212 0
37 92 121 38 93 122 0
37 92 191 38 93 192 0
37 121 211 38 122 212 0
37 137 191 38 138 192 0
37 137 211 38 138 212 0
46 79 232 47 80 233 0
46 79 254 47 80 255 0
46 106 172 47 107 173 0
46 106 254 47 107 255 0
46 154 232 47 155 233 0
46 154 254 47 155 255 0
46 172 232 47 173 233 0
56 79 211 57 80 212 0
56 79 232 57 80 233 0
56 92 106 57 93 107 0
56 92 121 57 93 122 0
56 92 232 57 93 233 0
56 106 172 57 107 173 0
56 106 211 57 107 212 0
56 121 211 57 122 212 0
56 172 232 57 173 233 0
67 79 191 68 80 192 0
67 79 254 68 80 255 0
67 92 106 68 93 107 0
67 92 154 68 93 155 0
67 92 191 68 93 192 0
67 106 137 68 107 138 0
67 106 254 68 107 255 0
67 137 191 68 138 192 0
67 154 254 68 155 255 0
79 191 232 80 192 233 0
79 211 254 80 212 255 0
92 121 154 93 122 155 0
92 154 232 93 155 233 0
92 191 232 93 192 233 0
106 137 172 107 138 173 0
106 137 211 107 138 212 0
106 211 254 107 212 255 0
121 154 254 122 155 255 0
121 211 254 122 212 255 0
137 172 191 138 173 192 0
172 191 232 173 192 233 0
29 37 31 39 32 40 0
29 46 31 48 32 49 0
29 56 31 58 32 59 0
29 67 31 69 32 70 0
29 121 31 123 32 124 0
29 137 31 139 32 140 0
29 154 31 156 32 157 0
29 172 31 174 32 175 0
37 46 39 48 40 49 0
37 79 39 81 40 82 0
37 92 39 94 40 95 0
37 121 39 123 40 124 0
37 137 39 139 40 140 0
37 191 39 193 40 194 0
37 211 39 213 40 214 0
46 79 48 81 49 82 0
46 106 48 108 49 109 0
46 154 48 156 49 157 0
46 172 48 174 49 175 0
46 232 48 234 49 235 0
46 254 48 256 49 257 0
56 79 58 81 59 82 0
56 92 58 94 59 95 0
56 106 58 108 59 109 0
56 121 58 123 59 124 0
56 172 58 174 59 175 0
56 211 58 213 59 214 0
56 232 58 234 59 235 0
67 79 69 81 70 82 0
67 92 69 94 70 95 0
67 106 69 108 70 109 0
67 137 69 139 70 140 0
67 154 69 156 70 157 0
67 191 69 193 70 194 0
67 254 69 256 70 257 0
79 191 81 193 82 194 0
79 211 81 213 82 214 0
79 232 81 234 82 235 0
79 254 81 256 82 257 0
92 106 94 108 95 109 0
92 121 94 123 95 124 0
92 154 94 156 95 157 0
92 191 94 193 95 194 0
92 232 94 234 95 235 0
106 137 108 139 109 140 0
106 172 108 174 109 175 0
106 211 108 213 109 214 0
106 254 108 256 109 257 0
121 154 123 156 124 157 0
121 211 123 213 124 214 0
121 254 123 256 124 257 0
137 172 139 174 140 175 0
137 191 139 193 140 194 0
137 211 139 213 140 214 0
154 232 156 234 157 235 0
154 254 156 256 157 257 0
172 191 174 193 175 194 0
172 232 174 234 175 235 0
191 232 193 234 194 235 0
211 254 213 256 214 257 0
29 37 46 31 39 48 0
29 37 121 31 39 123 0
29 37 137 31 39 139 0
29 46 154 31 48 156 0
29 46 172 31 48 174 0
29 56 121 31 58 123 0
29 56 172 31 58 174 0
29 67 137 31 69 139 0
29 67 154 31 69 156 0
29 121 154 31 123 156 0
29 137 172 31 139 174 0
37 46 79 39 48 81 0
37 79 191 39 81 193 0
37 79 211 39 81 213 0
37 92 121 39 94 123 0
37 92 191 39 94 193 0
37 121 211 39 123 213 0
37 137 191 39 139 193 0
37 137 211 39 139 213 0
46 79 232 48 81 234 0
46 79 254 48 81 256 0
46 106 172 48 108 174 0
46 106 254 48 108 256 0
46 154 232 48 156 234 0
46 154 254 48 156 256 0
46 172 232 48 174 234 0
56 79 211 58 81 213 0
56 79 232 58 81 234 0
56 92 106 58 94 108 0
56 92 121 58 94 123 0
56 92 232 58 94 234 0
56 106 172 58 108 174 0
56 106 211 58 108 213 0
56 121 211 58 123 213 0
56 172 232 58 174 234 0
67 79 191 69 81 193 0
67 79 254 69 81 256 0
67 92 106 69 94 108 0
67 92 154 69 94 156 0
67 92 191 69 94 193 0
67 106 137 69 108 139 0
67 106 254 69 108 256 0
67 137 191 69 139 193 0
67 154 254 69 156 256 0
79 191 232 81 193 234 0
79 211 254 81 213 256 0
92 121 154 94 123 156 0
92 154 232 94 156 234 0
92 191 232 94 193 234 0
106 137 172 108 139 174 0
106 137 211 108 139 213 0
106 211 254 108 213 256 0
121 154 254 123 156 256 0
121 211 254 123 213 256 0
137 172 191 139 174 193 0
172 191 232 174 193 234 0
11 29 37 14 32 40 34 42 0
11 29 46 14 32 49 34 51 0
11 29 56 14 32 59 34 61 0
11 29 67 14 32 70 34 72 0
11 29 121 14 32 124 34 126 0
11 29 137 14 32 140 34 142 0
11 29 154 14 32 157 34 159 0
11 29 172 14 32 175 34 177 0
11 37 46 14 40 49 42 51 0
11 37 79 14 40 82 42 84 0
11 37 92 14 40 95 42 97 0
11 37 121 14 40 124 42 126 0
11 37 137 14 40 140 42 142 0
11 37 191 14 40 194 42 196 0
11 37 211 14 40 214 42 216 0
11 46 79 14 49 82 51 84 0
11 46 106 14 49 109 51 111 0
11 46 154 14 49 157 51 159 0
11 46 172 14 49 175 51 177 0
11 46 232 14 49 235 51 237 0
11 46 254 14 49 257 51 259 0
11 56 79 14 59 82 61 84 0
11 56 92 14 59 95 61 97 0
11 56 106 14 59 109 61 111 0
11 56 121 14 59 124 61 126 0
11 56 172 14 59 175 61 177 0
11 56 211 14 59 214 61 216 0
11 56 232 14 59 235 61 237 0
11 67 79 14 70 82 72 84 0
11 67 92 14 70 95 72 97 0
11 67 106 14 70 109 72 111 0
11 67 137 14 70 140 72 142 0
11 67 154 14 70 157 72 159 0
11 67 191 14 70 194 72 196 0
11 67 254 14 70 257 72 259 0
11 79 191 14 82 194 84 196 0
11 79 211 14 82 214 84 216 0
11 79 232 14 82 235 84 237 0
11 79 254 14 82 257 84 259 0
11 92 106 14 95 109 97 111 0
11 92 121 14 95 124 97 126 0
11 92 154 14 95 157 97 159 0
11 92 191 14 95 194 97 196 0
11 92 232 14 95 235 97 237 0
11 106 137 14 109 140 111 142 0
11 106 172 14 109 175 111 177 0
11 106 211 14 109 214 111 216 0
11 106 254 14 109 257 111 259 0
11 121 154 14 124 157 126 159 0
11 121 211 14 124 214 126 216 0
11 121 254 14 124 257 126 259 0
11 137 172 14 140 175 142 177 0
11 137 191 14 140 194 142 196 0
11 137 211 14 140 214 142 216 0
11 154 232 14 157 235 159 237 0
11 154 254 14 157 257 159 259 0
11 172 191 14 175 194 177 196 0
11 172 232 14 175 235 177 237 0
11 191 232 14 194 235 196 237 0
11 211 254 14 214 257 216 259 0
29 37 46 32 40 49 0
29 37 121 32 40 124 0
29 37 137 32 40 140 0
29 46 154 32 49 157 0
29 46 172 32 49 175 0
29 56 121 32 59 124 0
29 56 172 32 59 175 0
29 67 137 32 70 140 0
29 67 154 32 70 157 0
29 121 154 32 124 157 0
29 137 172 32 140 175 0
37 46 79 40 49 82 0
37 79 191 40 82 194 0
37 79 211 40 82 214 0
37 92 121 40 95 124 0
37 92 191 40 95 194 0
37 121 211 40 124 214 0
37 137 191 40 140 194 0
37 137 211 40 140 214 0
46 79 232 49 82 235 0
46 79 254 49 82 257 0
46 106 172 49 109 175 0
46 106 254 49 109 257 0
46 154 232 49 157 235 0
46 154 254 49 157 257 0
46 172 232 49 175 235 0
56 79 211 59 82 214 0
56 79 232 59 82 235 0
56 92 106 59 95 109 0
56 92 121 59 95 124 0
56 92 232 59 95 235 0
56 106 172 59 109 175 0
56 106 211 59 109 214 0
56 121 211 59 124 214 0
56 172 232 59 175 235 0
67 79 191 70 82 194 0
67 79 254 70 82 257 0
67 92 106 70 95 109 0
67 92 154 70 95 157 0
67 92 191 70 95 194 0
67 106 137 70 109 140 0
67 106 254 70 109 257 0
67 137 191 70 140 194 0
67 154 254 70 157 257 0
79 191 232 82 194 235 0
79 211 254 82 214 257 0
92 121 154 95 124 157 0
92 154 232 95 157 235 0
92 191 232 95 194 235 0
106 137 172 109 140 175 0
106 137 211 109 140 214 0
106 211 254 109 214 257 0
121 154 254 124 157 257 0
121 211 254 124 214 257 0
137 172 191 140 175 194 0
172 191 232 175 194 235 0
11 29 37 33 41 34 42 0
11 29 46 33 50 34 51 0
11 29 56 33 60 34 61 0
11 29 67 33 71 34 72 0
11 29 121 33 125 34 126 0
11 29 137 33 141 34 142 0
11 29 154 33 158 34 159 0
11 29 172 33 176 34 177 0
11 37 46 41 50 42 51 0
11 37 79 41 83 42 84 0
11 37 92 41 96 42 97 0
11 37 121 41 125 42 126 0
11 37 137 41 141 42 142 0
11 37 191 41 195 42 196 0
11 37 211 41 215 42 216 0
11 46 79 50 83 51 84 0
11 46 106 50 110 51 111 0
11 46 154 50 158 51 159 0
11 46 172 50 176 51 177 0
11 46 232 50 236 51 237 0
11 46 254 50 258 51 259 0
11 56 79 60 83 61 84 0
11 56 92 60 96 61 97 0
11 56 106 60 110 61 111 0
11 56 121 60 125 61 126 0
11 56 172 60 176 61 177 0
11 56 211 60 215 61 216 0
11 56 232 60 236 61 237 0
11 67 79 71 83 72 84 0
11 67 92 71 96 72 97 0
11 67 106 71 110 72 111 0
11 67 137 71 141 72 142 0
11 67 154 71 158 72 159 0
11 67 191 71 195 72 196 0
11 67 254 71 258 72 259 0
11 79 191 83 195 84 196 0
11 79 211 83 215 84 216 0
11 79 232 83 236 84 237 0
11 79 254 83 258 84 259 0
11 92 106 96 110 97 111 0
11 92 121 96 125 97 126 0
11 92 154 96 158 97 159 0
11 92 191 96 195 97 196 0
11 92 232 96 236 97 237 0
11 106 137 110 141 111 142 0
11 106 172 110 176 111 177 0
11 106 211 110 215 111 216 0
11 106 254 110 258 111 259 0
11 121 154 125 158 126 159 0
11 121 211 125 215 126 216 0
11 121 254 125 258 126 259 0
11 137 172 141 176 142 177 0
11 137 191 141 195 142 196 0
11 137 211 141 215 142 216 0
11 154 232 158 236 159 237 0
11 154 254 158 258 159 259 0
11 172 191 176 195 177 196 0
11 172 232 176 236 177 237 0
11 191 232 195 236 196 237 0
11 211 254 215 258 216 259 0
29 37 46 33 41 50 0
29 37 121 33 41 125 0
29 37 137 33 41 141 0
29 46 154 33 50 158 0
29 46 172 33 50 176 0
29 56 121 33 60 125 0
29 56 172 33 60 176 0
29 67 137 33 71 141 0
29 67 154 33 71 158 0
29 121 154 33 125 158 0
29 137 172 33 141 176 0
37 46 79 41 50 83 0
37 79 191 41 83 195 0
37 79 211 41 83 215 0
37 92 121 41 96 125 0
37 92 191 41 96 195 0
37 121 211 41 125 215 0
37 137 191 41 141 195 0
37 137 211 41 141 215 0
46 79 232 50 83 236 0
46 79 254 50 83 258 0
46 106 172 50 110 176 0
46 106 254 50 110 258 0
46 154 232 50 158 236 0
46 154 254 50 158 258 0
46 172 232 50 176 236 0
56 79 211 60 83 215 0
56 79 232 60 83 236 0
56 92 106 60 96 110 0
56 92 121 60 96 125 0
56 92 232 60 96 236 0
56 106 172 60 110 176 0
56 106 211 60 110 215 0
56 121 211 60 125 215 0
56 172 232 60 176 236 0
67 79 191 71 83 195 0
67 79 254 71 83 258 0
67 92 106 71 96 110 0
67 92 154 71 96 158 0
67 92 191 71 96 195 0
67 106 137 71 110 141 0
67 106 254 71 110 258 0
67 137 191 71 141 195 0
67 154 254 71 158 258 0
79 191 232 83 195 236 0
79 211 254 83 215 258 0
92 121 154 96 125 158 0
92 154 232 96 158 236 0
92 191 232 96 195 236 0
106 137 172 110 141 176 0
106 137 211 110 141 215 0
106 211 254 110 215 258 0
121 154 254 125 158 258 0
121 211 254 125 215 258 0
137 172 191 141 176 195 0
172 191 232 176 195 236 0
11 29 37 46 34 42 51 0
11 29 37 121 34 42 126 0
11 29 37 137 34 42 142 0
11 29 46 154 34 51 159 0
11 29 46 172 34 51 177 0
11 29 56 121 34 61 126 0
11 29 56 172 34 61 177 0
11 29 67 137 34 72 142 0
11 29 67 154 34 72 159 0
11 29 121 154 34 126 159 0
11 29 137 172 34 142 177 0
11 37 46 79 42 51 84 0
11 37 79 191 42 84 196 0
11 37 79 211 42 84 216 0
11 37 92 121 42 97 126 0
11 37 92 191 42 97 196 0
11 37 121 211 42 126 216 0
11 37 137 191 42 142 196 0
11 37 137 211 42 142 216 0
11 46 79 232 51 84 237 0
11 46 79 254 51 84 259 0
11 46 106 172 51 111 177 0
11 46 106 254 51 111 259 0
11 46 154 232 51 159 237 0
11 46 154 254 51 159 259 0
11 46 172 232 51 177 237 0
11 56 79 211 61 84 216 0
11 56 79 232 61 84 237 0
11 56 92 106 61 97 111 0
11 56 92 121 61 97 126 0
11 56 92 232 61 97 237 0
11 56 106 172 61 111 177 0
11 56 106 211 61 111 216 0
11 56 121 211 61 126 216 0
11 56 172 232 61 177 237 0
11 67 79 191 72 84 196 0
11 67 79 254 72 84 259 0
11 67 92 106 72 97 111 0
11 67 92 154 72 97 159 0
11 67 92 191 72 97 196 0
11 67 106 137 72 111 142 0
11 67 106 254 72 111 259 0
11 67 137 191 72 142 196 0
11 67 154 254 72 159 259 0
11 79 191 232 84 196 237 0
11 79 211 254 84 216 259 0
11 92 121 154 97 126 159 0
11 92 154 232 97 159 237 0
11 92 191 232 97 196 237 0
11 106 137 172 111 142 177 0
11 106 137 211 111 142 216 0
11 106 211 254 111 216 259 0
11 121 154 254 126 159 259 0
11 121 211 254 126 216 259 0
11 137 172 191 142 177 196 0
11 172 191 232 177 196 237 0
17 30 31 32 35 0
17 38 39 40 43 0
17 47 48 49 52 0
17 57 58 59 62 0
17 68 69 70 73 0
17 80 81 82 85 0
17 93 94 95 98 0
17 107 108 109 112 0
17 122 123 124 127 0
17 138 139 140 143 0
17 155 156 157 160 0
17 173 174 175 178 0
17 192 193 194 197 0
17 212 213 214 217 0
17 233 234 235 238 0
17 255 256 257 260 0
30 38 31 39 32 40 0
30 47 31 48 32 49 0
30 57 31 58 32 59 0
30 68 31 69 32 70 0
30 122 31 123 32 124 0
30 138 31 139 32 140 0
30 155 31 156 32 157 0
30 173 31 174 32 175 0
38 47 39 48 40 49 0
38 80 39 81 40 82 0
38 93 39 94 40 95 0
38 122 39 123 40 124 0
38 138 39 139 40 140 0
38 192 39 193 40 194 0
38 212 39 213 40 214 0
47 80 48 81 49 82 0
47 107 48 108 49 109 0
47 155 48 156 49 157 0
47 173 48 174 49 175 0
47 233 48 234 49 235 0
47 255 48 256 49 257 0
57 80 58 81 59 82 0
57 93 58 94 59 95 0
57 107 58 108 59 109 0
57 122 58 123 59 124 0
57 173 58 174 59 175 0
57 212 58 213 59 214 0
57 233 58 234 59 235 0
68 80 69 81 70 82 0
68 93 69 94 70 95 0
68 107 69 108 70 109 0
68 138 69 139 70 140 0
68 155 69 156 70 157 0
68 192 69 193 70 194 0
68 255 69 256 70 257 0
80 192 81 193 82 194 0
80 212 81 213 82 214 0
80 233 81 234 82 235 0
80 255 81 256 82 257 0
93 107 94 108 95 109 0
93 122 94 123 95 124 0
93 155 94 156 95 157 0
93 192 94 193 95 194 0
93 233 94 234 95 235 0
107 138 108 139 109 140 0
107 173 108 174 109 175 0
107 212 108 213 109 214 0
107 255 108 256 109 257 0
122 155 123 156 124 157 0
122 212 123 213 124 214 0
122 255 123 256 124 257 0
138 173 139 174 140 175 0
138 192 139 193 140 194 0
138 212 139 213 140 214 0
155 233 156 234 157 235 0
155 255 156 256 157 257 0
173 192 174 193 175 194 0
173 233 174 234 175 235 0
192 233 193 234 194 235 0
212 255 213 256 214 257 0
17 30 38 31 39 35 43 0
17 30 47 31 48 35 52 0
17 30 57 31 58 35 62 0
17 30 68 31 69 35 73 0
17 30 122 31 123 35 127 0
17 30 138 31 139 35 143 0
17 30 155 31 156 35 160 0
17 30 173 31 174 35 178 0
17 38 47 39 48 43 52 0
17 38 80 39 81 43 85 0
17 38 93 39 94 43 98 0
17 38 122 39 123 43 127 0
17 38 138 39 139 43 143 0
17 38 192 39 193 43 197 0
17 38 212 39 213 43 217 0
17 47 80 48 81 52 85 0
17 47 107 48 108 52 112 0
17 47 155 48 156 52 160 0
17 47 173 48 174 52 178 0
17 47 233 48 234 52 238 0
17 47 255 48 256 52 260 0
17 57 80 58 81 62 85 0
17 57 93 58 94 62 98 0
17 57 107 58 108 62 112 0
17 57 122 58 123 62 127 0
17 57 173 58 174 62 178 0
17 57 212 58 213 62 217 0
17 57 233 58 234 62 238 0
17 68 80 69 81 73 85 0
17 68 93 69 94 73 98 0
17 68 107 69 108 73 112 0
17 68 138 69 139 73 143 0
17 68 155 69 156 73 160 0
17 68 192 69 193 73 197 0
17 68 255 69 256 73 260 0
17 80 192 81 193 85 197 0
17 80 212 81 213 85 217 0
17 80 233 81 234 85 238 0
17 80 255 81 256 85 260 0
17 93 107 94 108 98 112 0
17 93 122 94 123 98 127 0
17 93 155 94 156 98 160 0
17 93 192 94 193 98 197 0
17 93 233 94 234 98 238 0
17 107 138 108 139 112 143 0
17 107 173 108 174 112 178 0
17 107 212 108 213 112 217 0
17 107 255 108 256 112 260 0
17 122 155 123 156 127 160 0
17 122 212 123 213 127 217 0
17 122 255 123 256 127 260 0
17 138 173 139 174 143 178 0
17 138 192 139 193 143 197 0
17 138 212 139 213 143 217 0
17 155 233 156 234 160 238 0
17 155 255 156 256 160 260 0
17 173 192 174 193 178 197 0
17 173 233 174 234 178 238 0
17 192 233 193 234 197 238 0
17 212 255 213 256 217 260 0
30 38 47 31 39 48 0
30 38 122 31 39 123 0
30 38 138 31 39 139 0
30 47 155 31 48 156 0
30 47 173 31 48 174 0
30 57 122 31 58 123 0
30 57 173 31 58 174 0
30 68 138 31 69 139 0
30 68 155 31 69 156 0
30 122 155 31 123 156 0
30 138 173 31 139 174 0
38 47 80 39 48 81 0
38 80 192 39 81 193 0
38 80 212 39 81 213 0
38 93 122 39 94 123 0
38 93 192 39 94 193 0
38 122 212 39 123 213 0
38 138 192 39 139 193 0
38 138 212 39 139 213 0
47 80 233 48 81 234 0
47 80 255 48 81 256 0
47 107 173 48 108 174 0
47 107 255 48 108 256 0
47 155 233 48 156 234 0
47 155 255 48 156 256 0
47 173 233 48 174 234 0
57 80 212 58 81 213 0
57 80 233 58 81 234 0
57 93 107 58 94 108 0
57 93 122 58 94 123 0
57 93 233 58 94 234 0
57 107 173 58 108 174 0
57 107 212 58 108 213 0
57 122 212 58 123 213 0
57 173 233 58 174 234 0
68 80 192 69 81 193 0
68 80 255 69 81 256 0
68 93 107 69 94 108 0
68 93 155 69 94 156 0
68 93 192 69 94 193 0
68 107 138 69 108 139 0
68 107 255 69 108 256 0
68 138 192 69 139 193 0
68 155 255 69 156 256 0
80 192 233 81 193 234 0
80 212 255 81 213 256 0
93 122 155 94 123 156 0
93 155 233 94 156 234 0
93 192 233 94 193 234 0
107 138 173 108 139 174 0
107 138 212 108 139 213 0
107 212 255 108 213 256 0
122 155 255 123 156 256 0
122 212 255 123 213 256 0
138 173 192 139 174 193 0
173 192 233 174 193 234 0
17 30 38 32 40 35 43 0
17 30 47 32 49 35 52 0
17 30 57 32 59 35 62 0
17 30 68 32 70 35 73 0
17 30 122 32 124 35 127 0
17 30 138 32 140 35 143 0
17 30 155 32 157 35 160 0
17 30 173 32 175 35 178 0
17 38 47 40 49 43 52 0
17 38 80 40 82 43 85 0
17 38 93 40 95 43 98 0
17 38 122 40 124 43 127 0
17 38 138 40 140 43 143 0
17 38 192 40 194 43 197 0
17 38 212 40 214 43 217 0
17 47 80 49 82 52 85 0
17 47 107 49 109 52 112 0
17 47 155 49 157 52 160 0
17 47 173 49 175 52 178 0
17 47 233 49 235 52 238 0
17 47 255 49 257 52 260 0
17 57 80 59 82 62 85 0
17 57 93 59 95 62 98 0
17 57 107 59 109 62 112 0
17 57 122 59 124 62 127 0
17 57 173 59 175 62 178 0
17 57 212 59 214 62 217 0
17 57 233 59 235 62 238 0
17 68 80 70 82 73 85 0
17 68 93 70 95 73 98 0
17 68 107 70 109 73 112 0
17 68 138 70 140 73 143 0
17 68 155 70 157 73 160 0
17 68 192 70 194 73 197 0
17 68 255 70 257 73 260 0
17 80 192 82 194 85 197 0
17 80 212 82 214 85 217 0
17 80 233 82 235 85 238 0
17 80 255 82 257 85 260 0
17 93 107 95 109 98 112 0
17 93 122 95 124 98 127 0
17 93 155 95 157 98 160 0
17 93 192 95 194 98 197 0
17 93 233 95 235 98 238 0
17 107 138 109 140 112 143 0
17 107 173 109 175 112 178 0
17 107 212 109 214 112 217 0
17 107 255 109 257 112 260 0
17 122 155 124 157 127 160 0
17 122 212 124 214 127 217 0
17 122 255 124 257 127 260 0
17 138 173 140 175 143 178 0
17 138 192 140 194 143 197 0
17 138 212 140 214 143 217 0
17 155 233 157 235 160 238 0
17 155 255 157 257 160 260 0
17 173 192 175 194 178 197 0
17 173 233 175 235 178 238 0
17 192 233 194 235 197 238 0
17 212 255 214 257 217 260 0
30 38 47 32 40 49 0
30 38 122 32 40 124 0
30 38 138 32 40 140 0
30 47 155 32 49 157 0
30 47 173 32 49 175 0
30 57 122 32 59 124 0
30 57 173 32 59 175 0
30 68 138 32 70 140 0
30 68 155 32 70 157 0
30 122 155 32 124 157 0
30 138 173 32 140 175 0
38 47 80 40 49 82 0
38 80 192 40 82 194 0
38 80 212 40 82 214 0
38 93 122 40 95 124 0
38 93 192 40 95 194 0
38 122 212 40 124 214 0
38 138 192 40 140 194 0
38 138 212 40 140 214 0
47 80 233 49 82 235 0
47 80 255 49 82 257 0
47 107 173 49 109 175 0
47 107 255 49 109 257 0
47 155 233 49 157 235 0
47 155 255 49 157 257 0
47 173 233 49 175 235 0
57 80 212 59 82 214 0
57 80 233 59 82 235 0
57 93 107 59 95 109 0
57 93 122 59 95 124 0
57 93 233 59 95 235 0
57 107 173 59 109 175 0
57 107 212 59 109 214 0
57 122 212 59 124 214 0
57 173 233 59 175 235 0
68 80 192 70 82 194 0
68 80 255 70 82 257 0
68 93 107 70 95 109 0
68 93 155 70 95 157 0
68 93 192 70 95 194 0
68 107 138 70 109 140 0
68 107 255 70 109 257 0
68 138 192 70 140 194 0
68 155 255 70 157 257 0
80 192 233 82 194 235 0
80 212 255 82 214 257 0
93 122 155 95 124 157 0
93 155 233 95 157 235 0
93 192 233 95 194 235 0
107 138 173 109 140 175 0
107 138 212 109 140 214 0
107 212 255 109 214 257 0
122 155 255 124 157 257 0
122 212 255 124 214 257 0
138 173 192 140 175 194 0
173 192 233 175 194 235 0
30 38 47 33 41 50 0
30 38 122 33 41 125 0
30 38 138 33 41 141 0
30 47 155 33 50 158 0
30 47 173 33 50 176 0
30 57 122 33 60 125 0
30 57 173 33 60 176 0
30 68 138 33 71 141 0
30 68 155 33 71 158 0
30 122 155 33 125 158 0
30 138 173 33 141 176 0
38 47 80 41 50 83 0
38 80 192 41 83 195 0
38 80 212 41 83 215 0
38 93 122 41 96 125 0
38 93 192 41 96 195 0
38 122 212 41 125 215 0
38 138 192 41 141 195 0
38 138 212 41 141 215 0
47 80 233 50 83 236 0
47 80 255 50 83 258 0
47 107 173 50 110 176 0
47 107 255 50 110 258 0
47 155 233 50 158 236 0
47 155 255 50 158 258 0
47 173 233 50 176 236 0
57 80 212 60 83 215 0
57 80 233 60 83 236 0
57 93 107 60 96 110 0
57 93 122 60 96 125 0
57 93 233 60 96 236 0
57 107 173 60 110 176 0
57 107 212 60 110 215 0
57 122 212 60 125 215 0
57 173 233 60 176 236 0
68 80 192 71 83 195 0
68 80 255 71 83 258 0
68 93 107 71 96 110 0
68 93 155 71 96 158 0
68 93 192 71 96 195 0
68 107 138 71 110 141 0
68 107 255 71 110 258 0
68 138 192 71 141 195 0
68 155 255 71 158 258 0
80 192 233 83 195 236 0
80 212 255 83 215 258 0
93 122 155 96 125 158 0
93 155 233 96 158 236 0
93 192 233 96 195 236 0
107 138 173 110 141 176 0
107 138 212 110 141 215 0
107 212 255 110 215 258 0
122 155 255 125 158 258 0
122 212 255 125 215 258 0
138 173 192 141 176 195 0
173 192 233 176 195 236 0
17 30 38 47 35 43 52 0
17 30 38 122 35 43 127 0
17 30 38 138 35 43 143 0
17 30 47 155 35 52 160 0
17 30 47 173 35 52 178 0
17 30 57 122 35 62 127 0
17 30 57 173 35 62 178 0
17 30 68 138 35 73 143 0
17 30 68 155 35 73 160 0
17 30 122 155 35 127 160 0
17 30 138 173 35 143 178 0
17 38 47 80 43 52 85 0
17 38 80 192 43 85 197 0
17 38 80 212 43 85 217 0
17 38 93 122 43 98 127 0
17 38 93 192 43 98 197 0
17 38 122 212 43 127 217 0
17 38 138 192 43 143 197 0
17 38 138 212 43 143 217 0
17 47 80 233 52 85 238 0
17 47 80 255 52 85 260 0
17 47 107 173 52 112 178 0
17 47 107 255 52 112 260 0
17 47 155 233 52 160 238 0
17 47 155 255 52 160 260 0
17 47 173 233 52 178 238 0
17 57 80 212 62 85 217 0
17 57 80 233 62 85 238 0
17 57 93 107 62 98 112 0
17 57 93 122 62 98 127 0
17 57 93 233 62 98 238 0
17 57 107 173 62 112 178 0
17 57 107 212 62 112 217 0
17 57 122 212 62 127 217 0
17 57 173 233 62 178 238 0
17 68 80 192 73 85 197 0
17 68 80 255 73 85 260 0
17 68 93 107 73 98 112 0
17 68 93 155 73 98 160 0
17 68 93 192 73 98 197 0
17 68 107 138 73 112 143 0
17 68 107 255 73 112 260 0
17 68 138 192 73 143 197 0
17 68 155 255 73 160 260 0
17 80 192 233 85 197 238 0
17 80 212 255 85 217 260 0
17 93 122 155 98 127 160 0
17 93 155 233 98 160 238 0
17 93 192 233 98 197 238 0
17 107 138 173 112 143 178 0
17 107 138 212 112 143 217 0
17 107 212 255 112 217 260 0
17 122 155 255 127 160 260 0
17 122 212 255 127 217 260 0
17 138 173 192 143 178 197 0
17 173 192 233 178 197 238 0
31 39 32 40 35 43 0
31 48 32 49 35 52 0
31 58 32 59 35 62 0
31 69 32 70 35 73 0
31 123 32 124 35 127 0
31 139 32 140 35 143 0
31 156 32 157 35 160 0
31 174 32 175 35 178 0
39 48 40 49 43 52 0
39 81 40 82 43 85 0
39 94 40 95 43 98 0
39 123 40 124 43 127 0
39 139 40 140 43 143 0
39 193 40 194 43 197 0
39 213 40 214 43 217 0
48 81 49 82 52 85 0
48 108 49 109 52 112 0
48 156 49 157 52 160 0
48 174 49 175 52 178 0
48 234 49 235 52 238 0
48 256 49 257 52 260 0
58 81 59 82 62 85 0
58 94 59 95 62 98 0
58 108 59 109 62 112 0
58 123 59 124 62 127 0
58 174 59 175 62 178 0
58 213 59 214 62 217 0
58 234 59 235 62 238 0
69 81 70 82 73 85 0
69 94 70 95 73 98 0
69 108 70 109 73 112 0
69 139 70 140 73 143 0
69 156 70 157 73 160 0
69 193 70 194 73 197 0
69 256 70 257 73 260 0
81 193 82 194 85 197 0
81 213 82 214 85 217 0
81 234 82 235 85 238 0
81 256 82 257 85 260 0
94 108 95 109 98 112 0
94 123 95 124 98 127 0
94 156 95 157 98 160 0
94 193 95 194 98 197 0
94 234 95 235 98 238 0
108 139 109 140 112 143 0
108 174 109 175 112 178 0
108 213 109 214 112 217 0
108 256 109 257 112 260 0
123 156 124 157 127 160 0
123 213 124 214 127 217 0
123 256 124 257 127 260 0
139 174 140 175 143 178 0
139 193 140 194 143 197 0
139 213 140 214 143 217 0
156 234 157 235 160 238 0
156 256 157 257 160 260 0
174 193 175 194 178 197 0
174 234 175 235 178 238 0
193 234 194 235 197 238 0
213 256 214 257 217 260 0
31 39 48 32 40 49 0
31 39 123 32 40 124 0
31 39 139 32 40 140 0
31 48 156 32 49 157 0
31 48 174 32 49 175 0
31 58 123 32 59 124 0
31 58 174 32 59 175 0
31 69 139 32 70 140 0
31 69 156 32 70 157 0
31 123 156 32 124 157 0
31 139 174 32 140 175 0
39 48 81 40 49 82 0
39 81 193 40 82 194 0
39 81 213 40 82 214 0
39 94 123 40 95 124 0
39 94 193 40 95 194 0
39 123 213 40 124 214 0
39 139 193 40 140 194 0
39 139 213 40 140 214 0
48 81 234 49 82 235 0
48 81 256 49 82 257 0
48 108 174 49 109 175 0
48 108 256 49 109 257 0
48 156 234 49 157 235 0
48 156 256 49 157 257 0
48 174 234 49 175 235 0
58 81 213 59 82 214 0
58 81 234 59 82 235 0
58 94 108 59 95 109 0
58 94 123 59 95 124 0
58 94 234 59 95 235 0
58 108 174 59 109 175 0
58 108 213 59 109 214 0
58 123 213 59 124 214 0
58 174 234 59 175 235 0
69 81 193 70 82 194 0
69 81 256 70 82 257 0
69 94 108 70 95 109 0
69 94 156 70 95 157 0
69 94 193 70 95 194 0
69 108 139 70 109 140 0
69 108 256 70 109 257 0
69 139 193 70 140 194 0
69 156 256 70 157 257 0
81 193 234 82 194 235 0
81 213 256 82 214 257 0
94 123 156 95 124 157 0
94 156 234 95 157 235 0
94 193 234 95 194 235 0
108 139 174 109 140 175 0
108 139 213 109 140 214 0
108 213 256 109 214 257 0
123 156 256 124 157 257 0
123 213 256 124 214 257 0
139 174 193 140 175 194 0
174 193 234 175 194 235 0
24 31 39 35 43 36 44 0
24 31 48 35 52 36 53 0
24 31 58 35 62 36 63 0
24 31 69 35 73 36 74 0
24 31 123 35 127 36 128 0
24 31 139 35 143 36 144 0
24 31 156 35 160 36 161 0
24 31 174 35 178 36 179 0
24 39 48 43 52 44 53 0
24 39 81 43 85 44 86 0
24 39 94 43 98 44 99 0
24 39 123 43 127 44 128 0
24 39 139 43 143 44 144 0
24 39 193 43 197 44 198 0
24 39 213 43 217 44 218 0
24 48 81 52 85 53 86 0
24 48 108 52 112 53 113 0
24 48 156 52 160 53 161 0
24 48 174 52 178 53 179 0
24 48 234 52 238 53 239 0
24 48 256 52 260 53 261 0
24 58 81 62 85 63 86 0
24 58 94 62 98 63 99 0
24 58 108 62 112 63 113 0
24 58 123 62 127 63 128 0
24 58 174 62 178 63 179 0
24 58 213 62 217 63 218 0
24 58 234 62 238 63 239 0
24 69 81 73 85 74 86 0
24 69 94 73 98 74 99 0
24 69 108 73 112 74 113 0
24 69 139 73 143 74 144 0
24 69 156 73 160 74 161 0
24 69 193 73 197 74 198 0
24 69 256 73 260 74 261 0
24 81 193 85 197 86 198 0
24 81 213 85 217 86 218 0
24 81 234 85 238 86 239 0
24 81 256 85 260 86 261 0
24 94 108 98 112 99 113 0
24 94 123 98 127 99 128 0
24 94 156 98 160 99 161 0
24 94 193 98 197 99 198 0
24 94 234 98 238 99 239 0
24 108 139 112 143 113 144 0
24 108 174 112 178 113 179 0
24 108 213 112 217 113 218 0
24 108 256 112 260 113 261 0
24 123 156 127 160 128 161 0
24 123 213 127 217 128 218 0
24 123 256 127 260 128 261 0
24 139 174 143 178 144 179 0
24 139 193 143 197 144 198 0
24 139 213 143 217 144 218 0
24 156 234 160 238 161 239 0
24 156 256 160 260 161 261 0
24 174 193 178 197 179 198 0
24 174 234 178 238 179 239 0
24 193 234 197 238 198 239 0
24 213 256 217 260 218 261 0
31 39 48 35 43 52 0
31 39 123 35 43 127 0
31 39 139 35 43 143 0
31 48 156 35 52 160 0
31 48 174 35 52 178 0
31 58 123 35 62 127 0
31 58 174 35 62 178 0
31 69 139 35 73 143 0
31 69 156 35 73 160 0
31 123 156 35 127 160 0
31 139 174 35 143 178 0
39 48 81 43 52 85 0
39 81 193 43 85 197 0
39 81 213 43 85 217 0
39 94 123 43 98 127 0
39 94 193 43 98 197 0
39 123 213 43 127 217 0
39 139 193 43 143 197 0
39 139 213 43 143 217 0
48 81 234 52 85 238 0
48 81 256 52 85 260 0
48 108 174 52 112 178 0
48 108 256 52 112 260 0
48 156 234 52 160 238 0
48 156 256 52 160 260 0
48 174 234 52 178 238 0
58 81 213 62 85 217 0
58 81 234 62 85 238 0
58 94 108 62 98 112 0
58 94 123 62 98 127 0
58 94 234 62 98 238 0
58 108 174 62 112 178 0
58 108 213 62 112 217 0
58 123 213 62 127 217 0
58 174 234 62 178 238 0
69 81 193 73 85 197 0
69 81 256 73 85 260 0
69 94 108 73 98 112 0
69 94 156 73 98 160 0
69 94 193 73 98 197 0
69 108 139 73 112 143 0
69 108 256 73 112 260 0
69 139 193 73 143 197 0
69 156 256 73 160 260 0
81 193 234 85 197 238 0
81 213 256 85 217 260 0
94 123 156 98 127 160 0
94 156 234 98 160 238 0
94 193 234 98 197 238 0
108 139 174 112 143 178 0
108 139 213 112 143 217 0
108 213 256 112 217 260 0
123 156 256 127 160 260 0
123 213 256 127 217 260 0
139 174 193 143 178 197 0
174 193 234 178 197 238 0
24 31 39 48 36 44 53 0
24 31 39 123 36 44 128 0
24 31 39 139 36 44 144 0
24 31 48 156 36 53 161 0
24 31 48 174 36 53 179 0
24 31 58 123 36 63 128 0
24 31 58 174 36 63 179 0
24 31 69 139 36 74 144 0
24 31 69 156 36 74 161 0
24 31 123 156 36 128 161 0
24 31 139 174 36 144 179 0
24 39 48 81 44 53 86 0
24 39 81 193 44 86 198 0
24 39 81 213 44 86 218 0
24 39 94 123 44 99 128 0
24 39 94 193 44 99 198 0
24 39 123 213 44 128 218 0
24 39 139 193 44 144 198 0
24 39 139 213 44 144 218 0
24 48 81 234 53 86 239 0
24 48 81 256 53 86 261 0
24 48 108 174 53 113 179 0
24 48 108 256 53 113 261 0
24 48 156 234 53 161 239 0
24 48 156 256 53 161 261 0
24 48 174 234 53 179 239 0
24 58 81 213 63 86 218 0
24 58 81 234 63 86 239 0
24 58 94 108 63 99 113 0
24 58 94 123 63 99 128 0
24 58 94 234 63 99 239 0
24 58 108 174 63 113 179 0
24 58 108 213 63 113 218 0
24 58 123 213 63 128 218 0
24 58 174 234 63 179 239 0
24 69 81 193 74 86 198 0
24 69 81 256 74 86 261 0
24 69 94 108 74 99 113 0
24 69 94 156 74 99 161 0
24 69 94 193 74 99 198 0
24 69 108 139 74 113 144 0
24 69 108 256 74 113 261 0
24 69 139 193 74 144 198 0
24 69 156 256 74 161 261 0
24 81 193 234 86 198 239 0
24 81 213 256 86 218 261 0
24 94 123 156 99 128 161 0
24 94 156 234 99 161 239 0
24 94 193 234 99 198 239 0
24 108 139 174 113 144 179 0
24 108 139 213 113 144 218 0
24 108 213 256 113 218 261 0
24 123 156 256 128 161 261 0
24 123 213 256 128 218 261 0
24 139 174 193 144 179 198 0
24 174 193 234 179 198 239 0
14 32 40 34 42 35 43 0
14 32 49 34 51 35 52 0
14 32 59 34 61 35 62 0
14 32 70 34 72 35 73 0
14 32 124 34 126 35 127 0
14 32 140 34 142 35 143 0
14 32 157 34 159 35 160 0
14 32 175 34 177 35 178 0
14 40 49 42 51 43 52 0
14 40 82 42 84 43 85 0
14 40 95 42 97 43 98 0
14 40 124 42 126 43 127 0
14 40 140 42 142 43 143 0
14 40 194 42 196 43 197 0
14 40 214 42 216 43 217 0
14 49 82 51 84 52 85 0
14 49 109 51 111 52 112 0
14 49 157 51 159 52 160 0
14 49 175 51 177 52 178 0
14 49 235 51 237 52 238 0
14 49 257 51 259 52 260 0
14 59 82 61 84 62 85 0
14 59 95 61 97 62 98 0
14 59 109 61 111 62 112 0
14 59 124 61 126 62 127 0
14 59 175 61 177 62 178 0
14 59 214 61 216 62 217 0
14 59 235 61 237 62 238 0
14 70 82 72 84 73 85 0
14 70 95 72 97 73 98 0
14 70 109 72 111 73 112 0
14 70 140 72 142 73 143 0
14 70 157 72 159 73 160 0
14 70 194 72 196 73 197 0
14 70 257 72 259 73 260 0
14 82 194 84 196 85 197 0
14 82 214 84 216 85 217 0
14 82 235 84 237 85 238 0
14 82 257 84 259 85 260 0
14 95 109 97 111 98 112 0
14 95 124 97 126 98 127 0
14 95 157 97 159 98 160 0
14 95 194 97 196 98 197 0
14 95 235 97 237 98 238 0
14 109 140 111 142 112 143 0
14 109 175 111 177 112 178 0
14 109 214 111 216 112 217 0
14 109 257 111 259 112 260 0
14 124 157 126 159 127 160 0
14 124 214 126 216 127 217 0
14 124 257 126 259 127 260 0
14 140 175 142 177 143 178 0
14 140 194 142 196 143 197 0
14 140 214 142 216 143 217 0
14 157 235 159 237 160 238 0
14 157 257 159 259 160 260 0
14 175 194 177 196 178 197 0
14 175 235 177 237 178 238 0
14 194 235 196 237 197 238 0
14 214 257 216 259 217 260 0
14 32 40 49 34 42 51 0
14 32 40 124 34 42 126 0
14 32 40 140 34 42 142 0
14 32 49 157 34 51 159 0
14 32 49 175 34 51 177 0
14 32 59 124 34 61 126 0
14 32 59 175 34 61 177 0
14 32 70 140 34 72 142 0
14 32 70 157 34 72 159 0
14 32 124 157 34 126 159 0
14 32 140 175 34 142 177 0
14 40 49 82 42 51 84 0
14 40 82 194 42 84 196 0
14 40 82 214 42 84 216 0
14 40 95 124 42 97 126 0
14 40 95 194 42 97 196 0
14 40 124 214 42 126 216 0
14 40 140 194 42 142 196 0
14 40 140 214 42 142 216 0
14 49 82 235 51 84 237 0
14 49 82 257 51 84 259 0
14 49 109 175 51 111 177 0
14 49 109 257 51 111 259 0
14 49 157 235 51 159 237 0
14 49 157 257 51 159 259 0
14 49 175 235 51 177 237 0
14 59 82 214 61 84 216 0
14 59 82 235 61 84 237 0
14 59 95 109 61 97 111 0
14 59 95 124 61 97 126 0
14 59 95 235 61 97 237 0
14 59 109 175 61 111 177 0
14 59 109 214 61 111 216 0
14 59 124 214 61 126 216 0
14 59 175 235 61 177 237 0
14 70 82 194 72 84 196 0
14 70 82 257 72 84 259 0
14 70 95 109 72 97 111 0
14 70 95 157 72 97 159 0
14 70 95 194 72 97 196 0
14 70 109 140 72 111 142 0
14 70 109 257 72 111 259 0
14 70 140 194 72 142 196 0
14 70 157 257 72 159 259 0
14 82 194 235 84 196 237 0
14 82 214 257 84 216 259 0
14 95 124 157 97 126 159 0
14 95 157 235 97 159 237 0
14 95 194 235 97 196 237 0
14 109 140 175 111 142 177 0
14 109 140 214 111 142 216 0
14 109 214 257 111 216 259 0
14 124 157 257 126 159 259 0
14 124 214 257 126 216 259 0
14 140 175 194 142 177 196 0
14 175 194 235 177 196 237 0
32 40 49 35 43 52 0
32 40 124 35 43 127 0
32 40 140 35 43 143 0
32 49 157 35 52 160 0
32 49 175 35 52 178 0
32 59 124 35 62 127 0
32 59 175 35 62 178 0
32 70 140 35 73 143 0
32 70 157 35 73 160 0
32 124 157 35 127 160 0
32 140 175 35 143 178 0
40 49 82 43 52 85 0
40 82 194 43 85 197 0
40 82 214 43 85 217 0
40 95 124 43 98 127 0
40 95 194 43 98 197 0
40 124 214 43 127 217 0
40 140 194 43 143 197 0
40 140 214 43 143 217 0
49 82 235 52 85 238 0
49 82 257 52 85 260 0
49 109 175 52 112 178 0
49 109 257 52 112 260 0
49 157 235 52 160 238 0
49 157 257 52 160 260 0
49 175 235 52 178 238 0
59 82 214 62 85 217 0
59 82 235 62 85 238 0
59 95 109 62 98 112 0
59 95 124 62 98 127 0
59 95 235 62 98 238 0
59 109 175 62 112 178 0
59 109 214 62 112 217 0
59 124 214 62 127 217 0
59 175 235 62 178 238 0
70 82 194 73 85 197 0
70 82 257 73 85 260 0
70 95 109 73 98 112 0
70 95 157 73 98 160 0
70 95 194 73 98 197 0
70 109 140 73 112 143 0
70 109 257 73 112 260 0
70 140 194 73 143 197 0
70 157 257 73 160 260 0
82 194 235 85 197 238 0
82 214 257 85 217 260 0
95 124 157 98 127 160 0
95 157 235 98 160 238 0
95 194 235 98 197 238 0
109 140 175 112 143 178 0
109 140 214 112 143 217 0
109 214 257 112 217 260 0
124 157 257 127 160 260 0
124 214 257 127 217 260 0
140 175 194 143 178 197 0
175 194 235 178 197 238 0
33 41 34 42 36 44 0
33 50 34 51 36 53 0
33 60 34 61 36 63 0
33 71 34 72 36 74 0
33 125 34 126 36 128 0
33 141 34 142 36 144 0
33 158 34 159 36 161 0
33 176 34 177 36 179 0
41 50 42 51 44 53 0
41 83 42 84 44 86 0
41 96 42 97 44 99 0
41 125 42 126 44 128 0
41 141 42 142 44 144 0
41 195 42 196 44 198 0
41 215 42 216 44 218 0
50 83 51 84 53 86 0
50 110 51 111 53 113 0
50 158 51 159 53 161 0
50 176 51 177 53 179 0
50 236 51 237 53 239 0
50 258 51 259 53 261 0
60 83 61 84 63 86 0
60 96 61 97 63 99 0
60 110 61 111 63 113 0
60 125 61 126 63 128 0
60 176 61 177 63 179 0
60 215 61 216 63 218 0
60 236 61 237 63 239 0
71 83 72 84 74 86 0
71 96 72 97 74 99 0
71 110 72 111 74 113 0
71 141 72 142 74 144 0
71 158 72 159 74 161 0
71 195 72 196 74 198 0
71 258 72 259 74 261 0
83 195 84 196 86 198 0
83 215 84 216 86 218 0
83 236 84 237 86 239 0
83 258 84 259 86 261 0
96 110 97 111 99 113 0
96 125 97 126 99 128 0
96 158 97 159 99 161 0
96 195 97 196 99 198 0
96 236 97 237 99 239 0
110 141 111 142 113 144 0
110 176 111 177 113 179 0
110 215 111 216 113 218 0
110 258 111 259 113 261 0
125 158 126 159 128 161 0
125 215 126 216 128 218 0
125 258 126 259 128 261 0
141 176 142 177 144 179 0
141 195 142 196 144 198 0
141 215 142 216 144 218 0
158 236 159 237 161 239 0
158 258 159 259 161 261 0
176 195 177 196 179 198 0
176 236 177 237 179 239 0
195 236 196 237 198 239 0
215 258 216 259 218 261 0
33 41 50 34 42 51 0
33 41 125 34 42 126 0
33 41 141 34 42 142 0
33 50 158 34 51 159 0
33 50 176 34 51 177 0
33 60 125 34 61 126 0
33 60 176 34 61 177 0
33 71 141 34 72 142 0
33 71 158 34 72 159 0
33 125 158 34 126 159 0
33 141 176 34 142 177 0
41 50 83 42 51 84 0
41 83 195 42 84 196 0
41 83 215 42 84 216 0
41 96 125 42 97 126 0
41 96 195 42 97 196 0
41 125 215 42 126 216 0
41 141 195 42 142 196 0
41 141 215 42 142 216 0
50 83 236 51 84 237 0
50 83 258 51 84 259 0
50 110 176 51 111 177 0
50 110 258 51 111 259 0
50 158 236 51 159 237 0
50 158 258 51 159 259 0
50 176 236 51 177 237 0
60 83 215 61 84 216 0
60 83 236 61 84 237 0
60 96 110 61 97 111 0
60 96 125 61 97 126 0
60 96 236 61 97 237 0
60 110 176 61 111 177 0
60 110 215 61 111 216 0
60 125 215 61 126 216 0
60 176 236 61 177 237 0
71 83 195 72 84 196 0
71 83 258 72 84 259 0
71 96 110 72 97 111 0
71 96 158 72 97 159 0
71 96 195 72 97 196 0
71 110 141 72 111 142 0
71 110 258 72 111 259 0
71 141 195 72 142 196 0
71 158 258 72 159 259 0
83 195 236 84 196 237 0
83 215 258 84 216 259 0
96 125 158 97 126 159 0
96 158 236 97 159 237 0
96 195 236 97 196 237 0
110 141 176 111 142 177 0
110 141 215 111 142 216 0
110 215 258 111 216 259 0
125 158 258 126 159 259 0
125 215 258 126 216 259 0
141 176 195 142 177 196 0
176 195 236 177 196 237 0
33 41 50 36 44 53 0
33 41 125 36 44 128 0
33 41 141 36 44 144 0
33 50 158 36 53 161 0
33 50 176 36 53 179 0
33 60 125 36 63 128 0
33 60 176 36 63 179 0
33 71 141 36 74 144 0
33 71 158 36 74 161 0
33 125 158 36 128 161 0
33 141 176 36 144 179 0
41 50 83 44 53 86 0
41 83 195 44 86 198 0
41 83 215 44 86 218 0
41 96 125 44 99 128 0
41 96 195 44 99 198 0
41 125 215 44 128 218 0
41 141 195 44 144 198 0
41 141 215 44 144 218 0
50 83 236 53 86 239 0
50 83 258 53 86 261 0
50 110 176 53 113 179 0
50 110 258 53 113 261 0
50 158 236 53 161 239 0
50 158 258 53 161 261 0
50 176 236 53 179 239 0
60 83 215 63 86 218 0
60 83 236 63 86 239 0
60 96 110 63 99 113 0
60 96 125 63 99 128 0
60 96 236 63 99 239 0
60 110 176 63 113 179 0
60 110 215 63 113 218 0
60 125 215 63 128 218 0
60 176 236 63 179 239 0
71 83 195 74 86 198 0
71 83 258 74 86 261 0
71 96 110 74 99 113 0
71 96 158 74 99 161 0
71 96 195 74 99 198 0
71 110 141 74 113 144 0
71 110 258 74 113 261 0
71 141 195 74 144 198 0
71 158 258 74 161 261 0
83 195 236 86 198 239 0
83 215 258 86 218 261 0
96 125 158 99 128 161 0
96 158 236 99 161 239 0
96 195 236 99 198 239 0
110 141 176 113 144 179 0
110 141 215 113 144 218 0
110 215 258 113 218 261 0
125 158 258 128 161 261 0
125 215 258 128 218 261 0
141 176 195 144 179 198 0
176 195 236 179 198 239 0
34 42 35 43 36 44 0
34 51 35 52 36 53 0
34 61 35 62 36 63 0
34 72 35 73 36 74 0
34 126 35 127 36 128 0
34 142 35 143 36 144 0
34 159 35 160 36 161 0
34 177 35 178 36 179 0
42 51 43 52 44 53 0
42 84 43 85 44 86 0
42 97 43 98 44 99 0
42 126 43 127 44 128 0
42 142 43 143 44 144 0
42 196 43 197 44 198 0
42 216 43 217 44 218 0
51 84 52 85 53 86 0
51 111 52 112 53 113 0
51 159 52 160 53 161 0
51 177 52 178 53 179 0
51 237 52 238 53 239 0
51 259 52 260 53 261 0
61 84 62 85 63 86 0
61 97 62 98 63 99 0
61 111 62 112 63 113 0
61 126 62 127 63 128 0
61 177 62 178 63 179 0
61 216 62 217 63 218 0
61 237 62 238 63 239 0
72 84 73 85 74 86 0
72 97 73 98 74 99 0
72 111 73 112 74 113 0
72 142 73 143 74 144 0
72 159 73 160 74 161 0
72 196 73 197 74 198 0
72 259 73 260 74 261 0
84 196 85 197 86 198 0
84 216 85 217 86 218 0
84 237 85 238 86 239 0
84 259 85 260 86 261 0
97 111 98 112 99 113 0
97 126 98 127 99 128 0
97 159 98 160 99 161 0
97 196 98 197 99 198 0
97 237 98 238 99 239 0
111 142 112 143 113 144 0
111 177 112 178 113 179 0
111 216 112 217 113 218 0
111 259 112 260 113 261 0
126 159 127 160 128 161 0
126 216 127 217 128 218 0
126 259 127 260 128 261 0
142 177 143 178 144 179 0
142 196 143 197 144 198 0
142 216 143 217 144 218 0
159 237 160 238 161 239 0
159 259 160 260 161 261 0
177 196 178 197 179 198 0
177 237 178 238 179 239 0
196 237 197 238 198 239 0
216 259 217 260 218 261 0
34 42 51 35 43 52 0
34 42 126 35 43 127 0
34 42 142 35 43 143 0
34 51 159 35 52 160 0
34 51 177 35 52 178 0
34 61 126 35 62 127 0
34 61 177 35 62 178 0
34 72 142 35 73 143 0
34 72 159 35 73 160 0
34 126 159 35 127 160 0
34 142 177 35 143 178 0
42 51 84 43 52 85 0
42 84 196 43 85 197 0
42 84 216 43 85 217 0
42 97 126 43 98 127 0
42 97 196 43 98 197 0
42 126 216 43 127 217 0
42 142 196 43 143 197 0
42 142 216 43 143 217 0
51 84 237 52 85 238 0
51 84 259 52 85 260 0
51 111 177 52 112 178 0
51 111 259 52 112 260 0
51 159 237 52 160 238 0
51 159 259 52 160 260 0
51 177 237 52 178 238 0
61 84 216 62 85 217 0
61 84 237 62 85 238 0
61 97 111 62 98 112 0
61 97 126 62 98 127 0
61 97 237 62 98 238 0
61 111 177 62 112 178 0
61 111 216 62 112 217 0
61 126 216 62 127 217 0
61 177 237 62 178 238 0
72 84 196 73 85 197 0
72 84 259 73 85 260 0
72 97 111 73 98 112 0
72 97 159 73 98 160 0
72 97 196 73 98 197 0
72 111 142 73 112 143 0
72 111 259 73 112 260 0
72 142 196 73 143 197 0
72 159 259 73 160 260 0
84 196 237 85 197 238 0
84 216 259 85 217 260 0
97 126 159 98 127 160 0
97 159 237 98 160 238 0
97 196 237 98 197 238 0
111 142 177 112 143 178 0
111 142 216 112 143 217 0
111 216 259 112 217 260 0
126 159 259 127 160 260 0
126 216 259 127 217 260 0
142 177 196 143 178 197 0
177 196 237 178 197 238 0
34 42 51 36 44 53 0
34 42 126 36 44 128 0
34 42 142 36 44 144 0
34 51 159 36 53 161 0
34 51 177 36 53 179 0
34 61 126 36 63 128 0
34 61 177 36 63 179 0
34 72 142 36 74 144 0
34 72 159 36 74 161 0
34 126 159 36 128 161 0
34 142 177 36 144 179 0
42 51 84 44 53 86 0
42 84 196 44 86 198 0
42 84 216 44 86 218 0
42 97 126 44 99 128 0
42 97 196 44 99 198 0
42 126 216 44 128 218 0
42 142 196 44 144 198 0
42 142 216 44 144 218 0
51 84 237 53 86 239 0
51 84 259 53 86 261 0
51 111 177 53 113 179 0
51 111 259 53 113 261 0
51 159 237 53 161 239 0
51 159 259 53 161 261 0
51 177 237 53 179 239 0
61 84 216 63 86 218 0
61 84 237 63 86 239 0
61 97 111 63 99 113 0
61 97 126 63 99 128 0
61 97 237 63 99 239 0
61 111 177 63 113 179 0
61 111 216 63 113 218 0
61 126 216 63 128 218 0
61 177 237 63 179 239 0
72 84 196 74 86 198 0
72 84 259 74 86 261 0
72 97 111 74 99 113 0
72 97 159 74 99 161 0
72 97 196 74 99 198 0
72 111 142 74 113 144 0
72 111 259 74 113 261 0
72 142 196 74 144 198 0
72 159 259 74 161 261 0
84 196 237 86 198 239 0
84 216 259 86 218 261 0
97 126 159 99 128 161 0
97 159 237 99 161 239 0
97 196 237 99 198 239 0
111 142 177 113 144 179 0
111 142 216 113 144 218 0
111 216 259 113 218 261 0
126 159 259 128 161 261 0
126 216 259 128 218 261 0
142 177 196 144 179 198 0
177 196 237 179 198 239 0
35 43 52 36 44 53 0
35 43 127 36 44 128 0
35 43 143 36 44 144 0
35 52 160 36 53 161 0
35 52 178 36 53 179 0
35 62 127 36 63 128 0
35 62 178 36 63 179 0
35 73 143 36 74 144 0
35 73 160 36 74 161 0
35 127 160 36 128 161 0
35 143 178 36 144 179 0
43 52 85 44 53 86 0
43 85 197 44 86 198 0
43 85 217 44 86 218 0
43 98 127 44 99 128 0
43 98 197 44 99 198 0
43 127 217 44 128 218 0
43 143 197 44 144 198 0
43 143 217 44 144 218 0
52 85 238 53 86 239 0
52 85 260 53 86 261 0
52 112 178 53 113 179 0
52 112 260 53 113 261 0
52 160 238 53 161 239 0
52 160 260 53 161 261 0
52 178 238 53 179 239 0
62 85 217 63 86 218 0
62 85 238 63 86 239 0
62 98 112 63 99 113 0
62 98 127 63 99 128 0
62 98 238 63 99 239 0
62 112 178 63 113 179 0
62 112 217 63 113 218 0
62 127 217 63 128 218 0
62 178 238 63 179 239 0
73 85 197 74 86 198 0
73 85 260 74 86 261 0
73 98 112 74 99 113 0
73 98 160 74 99 161 0
73 98 197 74 99 198 0
73 112 143 74 113 144 0
73 112 260 74 113 261 0
73 143 197 74 144 198 0
73 160 260 74 161 261 0
85 197 238 86 198 239 0
85 217 260 86 218 261 0
98 127 160 99 128 161 0
98 160 238 99 161 239 0
98 197 238 99 198 239 0
112 143 178 113 144 179 0
112 143 217 113 144 218 0
112 217 260 113 218 261 0
127 160 260 128 161 261 0
127 217 260 128 218 261 0
143 178 197 144 179 198 0
178 197 238 179 198 239 0
