p cnf 276 3732
-29 -79 -36 -86 0
-29 -92 -36 -99 0
-29 -106 -36 -113 0
-29 -191 -36 -198 0
-29 -211 -36 -218 0
-29 -232 -36 -239 0
-29 -254 -36 -261 0
-37 -56 -44 -63 0
-37 -67 -44 -74 0
-37 -106 -44 -113 0
-37 -154 -44 -161 0
-37 -172 -44 -179 0
-37 -232 -44 -239 0
-37 -254 -44 -261 0
-46 -56 -53 -63 0
-46 -67 -53 -74 0
-46 -92 -53 -99 0
-46 -121 -53 -128 0
-46 -137 -53 -144 0
-46 -191 -53 -198 0
-46 -211 -53 -218 0
-56 -67 -63 -74 0
-56 -137 -63 -144 0
-56 -154 -63 -161 0
-56 -191 -63 -198 0
-56 -254 -63 -261 0
-67 -121 -74 -128 0
-67 -172 -74 -179 0
-67 -211 -74 -218 0
-67 -232 -74 -239 0
-79 -92 -86 -99 0
-79 -106 -86 -113 0
-79 -121 -86 -128 0
-79 -137 -86 -144 0
-79 -154 -86 -161 0
-79 -172 -86 -179 0
-92 -137 -99 -144 0
-92 -172 -99 -179 0
-92 -211 -99 -218 0
-92 -254 -99 -261 0
-106 -121 -113 -128 0
-106 -154 -113 -161 0
-106 -191 -113 -198 0
-106 -232 -113 -239 0
-121 -137 -128 -144 0
-121 -172 -128 -179 0
-121 -191 -128 -198 0
-121 -232 -128 -239 0
-137 -154 -144 -161 0
-137 -232 -144 -239 0
-137 -254 -144 -261 0
-154 -172 -161 -179 0
-154 -191 -161 -198 0
-154 -211 -161 -218 0
-172 -211 -179 -218 0
-172 -254 -179 -261 0
-191 -211 -198 -218 0
-191 -254 -198 -261 0
-211 -232 -218 -239 0
-232 -254 -239 -261 0
-29 -79 -92 0
-29 -79 -106 0
-29 -92 -211 0
-29 -92 -254 0
-29 -106 -191 0
-29 -106 -232 0
-29 -191 -211 0
-29 -191 -254 0
-29 -211 -232 0
-29 -232 -254 0
-37 -56 -67 0
-37 -56 -154 0
-37 -56 -254 0
-37 -67 -172 0
-37 -67 -232 0
-37 -106 -154 0
-37 -106 -232 0
-37 -154 -172 0
-37 -172 -254 0
-37 -232 -254 0
-46 -56 -67 0
-46 -56 -137 0
-46 -56 -191 0
-46 -67 -121 0
-46 -67 -211 0
-46 -92 -137 0
-46 -92 -211 0
-46 -121 -137 0
-46 -121 -191 0
-46 -191 -211 0
-56 -137 -154 0
-56 -137 -254 0
-56 -154 -191 0
-56 -191 -254 0
-67 -121 -172 0
-67 -121 -232 0
-67 -172 -211 0
-67 -211 -232 0
-79 -92 -137 0
-79 -92 -172 0
-79 -106 -121 0
-79 -106 -154 0
-79 -121 -137 0
-79 -121 -172 0
-79 -137 -154 0
-79 -154 -172 0
-92 -137 -254 0
-92 -172 -211 0
-92 -172 -254 0
-106 -121 -191 0
-106 -121 -232 0
-106 -154 -191 0
-121 -137 -232 0
-137 -232 -254 0
-154 -172 -211 0
-154 -191 -211 0
-30 -80 -32 -82 0
-30 -93 -32 -95 0
-30 -107 -32 -109 0
-30 -192 -32 -194 0
-30 -212 -32 -214 0
-30 -233 -32 -235 0
-30 -255 -32 -257 0
-38 -57 -40 -59 0
-38 -68 -40 -70 0
-38 -107 -40 -109 0
-38 -155 -40 -157 0
-38 -173 -40 -175 0
-38 -233 -40 -235 0
-38 -255 -40 -257 0
-47 -57 -49 -59 0
-47 -68 -49 -70 0
-47 -93 -49 -95 0
-47 -122 -49 -124 0
-47 -138 -49 -140 0
-47 -192 -49 -194 0
-47 -212 -49 -214 0
-57 -68 -59 -70 0
-57 -138 -59 -140 0
-57 -155 -59 -157 0
-57 -192 -59 -194 0
-57 -255 -59 -257 0
-68 -122 -70 -124 0
-68 -173 -70 -175 0
-68 -212 -70 -214 0
-68 -233 -70 -235 0
-80 -93 -82 -95 0
-80 -107 -82 -109 0
-80 -122 -82 -124 0
-80 -138 -82 -140 0
-80 -155 -82 -157 0
-80 -173 -82 -175 0
-93 -138 -95 -140 0
-93 -173 -95 -175 0
-93 -212 -95 -214 0
-93 -255 -95 -257 0
-107 -122 -109 -124 0
-107 -155 -109 -157 0
-107 -192 -109 -194 0
-107 -233 -109 -235 0
-122 -138 -124 -140 0
-122 -173 -124 -175 0
-122 -192 -124 -194 0
-122 -233 -124 -235 0
-138 -155 -140 -157 0
-138 -233 -140 -235 0
-138 -255 -140 -257 0
-155 -173 -157 -175 0
-155 -192 -157 -194 0
-155 -212 -157 -214 0
-173 -212 -175 -214 0
-173 -255 -175 -257 0
-192 -212 -194 -214 0
-192 -255 -194 -257 0
-212 -233 -214 -235 0
-233 -255 -235 -257 0
-30 -80 -36 -86 0
-30 -93 -36 -99 0
-30 -107 -36 -113 0
-30 -192 -36 -198 0
-30 -212 -36 -218 0
-30 -233 -36 -239 0
-30 -255 -36 -261 0
-38 -57 -44 -63 0
-38 -68 -44 -74 0
-38 -107 -44 -113 0
-38 -155 -44 -161 0
-38 -173 -44 -179 0
-38 -233 -44 -239 0
-38 -255 -44 -261 0
-47 -57 -53 -63 0
-47 -68 -53 -74 0
-47 -93 -53 -99 0
-47 -122 -53 -128 0
-47 -138 -53 -144 0
-47 -192 -53 -198 0
-47 -212 -53 -218 0
-57 -68 -63 -74 0
-57 -138 -63 -144 0
-57 -155 -63 -161 0
-57 -192 -63 -198 0
-57 -255 -63 -261 0
-68 -122 -74 -128 0
-68 -173 -74 -179 0
-68 -212 -74 -218 0
-68 -233 -74 -239 0
-80 -93 -86 -99 0
-80 -107 -86 -113 0
-80 -122 -86 -128 0
-80 -138 -86 -144 0
-80 -155 -86 -161 0
-80 -173 -86 -179 0
-93 -138 -99 -144 0
-93 -173 -99 -179 0
-93 -212 -99 -218 0
-93 -255 -99 -261 0
-107 -122 -113 -128 0
-107 -155 -113 -161 0
-107 -192 -113 -198 0
-107 -233 -113 -239 0
-122 -138 -128 -144 0
-122 -173 -128 -179 0
-122 -192 -128 -198 0
-122 -233 -128 -239 0
-138 -155 -144 -161 0
-138 -233 -144 -239 0
-138 -255 -144 -261 0
-155 -173 -161 -179 0
-155 -192 -161 -198 0
-155 -212 -161 -218 0
-173 -212 -179 -218 0
-173 -255 -179 -261 0
-192 -212 -198 -218 0
-192 -255 -198 -261 0
-212 -233 -218 -239 0
-233 -255 -239 -261 0
-30 -80 -93 0
-30 -80 -107 0
-30 -93 -212 0
-30 -93 -255 0
-30 -107 -192 0
-30 -107 -233 0
-30 -192 -212 0
-30 -192 -255 0
-30 -212 -233 0
-30 -233 -255 0
-38 -57 -68 0
-38 -57 -155 0
-38 -57 -255 0
-38 -68 -173 0
-38 -68 -233 0
-38 -107 -155 0
-38 -107 -233 0
-38 -155 -173 0
-38 -173 -255 0
-38 -233 -255 0
-47 -57 -68 0
-47 -57 -138 0
-47 -57 -192 0
-47 -68 -122 0
-47 -68 -212 0
-47 -93 -138 0
-47 -93 -212 0
-47 -122 -138 0
-47 -122 -192 0
-47 -192 -212 0
-57 -138 -155 0
-57 -138 -255 0
-57 -155 -192 0
-57 -192 -255 0
-68 -122 -173 0
-68 -122 -233 0
-68 -173 -212 0
-68 -212 -233 0
-80 -93 -138 0
-80 -93 -173 0
-80 -107 -122 0
-80 -107 -155 0
-80 -122 -138 0
-80 -122 -173 0
-80 -138 -155 0
-80 -155 -173 0
-93 -138 -255 0
-93 -173 -212 0
-93 -173 -255 0
-107 -122 -192 0
-107 -122 -233 0
-107 -155 -192 0
-122 -138 -233 0
-138 -233 -255 0
-155 -173 -212 0
-155 -192 -212 0
-9 -31 -81 -33 -83 0
-9 -31 -94 -33 -96 0
-9 -31 -108 -33 -110 0
-9 -31 -193 -33 -195 0
-9 -31 -213 -33 -215 0
-9 -31 -234 -33 -236 0
-9 -31 -256 -33 -258 0
-9 -39 -58 -41 -60 0
-9 -39 -69 -41 -71 0
-9 -39 -108 -41 -110 0
-9 -39 -156 -41 -158 0
-9 -39 -174 -41 -176 0
-9 -39 -234 -41 -236 0
-9 -39 -256 -41 -258 0
-9 -48 -58 -50 -60 0
-9 -48 -69 -50 -71 0
-9 -48 -94 -50 -96 0
-9 -48 -123 -50 -125 0
-9 -48 -139 -50 -141 0
-9 -48 -193 -50 -195 0
-9 -48 -213 -50 -215 0
-9 -58 -69 -60 -71 0
-9 -58 -139 -60 -141 0
-9 -58 -156 -60 -158 0
-9 -58 -193 -60 -195 0
-9 -58 -256 -60 -258 0
-9 -69 -123 -71 -125 0
-9 -69 -174 -71 -176 0
-9 -69 -213 -71 -215 0
-9 -69 -234 -71 -236 0
-9 -81 -94 -83 -96 0
-9 -81 -108 -83 -110 0
-9 -81 -123 -83 -125 0
-9 -81 -139 -83 -141 0
-9 -81 -156 -83 -158 0
-9 -81 -174 -83 -176 0
-9 -94 -139 -96 -141 0
-9 -94 -174 -96 -176 0
-9 -94 -213 -96 -215 0
-9 -94 -256 -96 -258 0
-9 -108 -123 -110 -125 0
-9 -108 -156 -110 -158 0
-9 -108 -193 -110 -195 0
-9 -108 -234 -110 -236 0
-9 -123 -139 -125 -141 0
-9 -123 -174 -125 -176 0
-9 -123 -193 -125 -195 0
-9 -123 -234 -125 -236 0
-9 -139 -156 -141 -158 0
-9 -139 -234 -141 -236 0
-9 -139 -256 -141 -258 0
-9 -156 -174 -158 -176 0
-9 -156 -193 -158 -195 0
-9 -156 -213 -158 -215 0
-9 -174 -213 -176 -215 0
-9 -174 -256 -176 -258 0
-9 -193 -213 -195 -215 0
-9 -193 -256 -195 -258 0
-9 -213 -234 -215 -236 0
-9 -234 -256 -236 -258 0
-31 -81 -35 -85 0
-31 -94 -35 -98 0
-31 -108 -35 -112 0
-31 -193 -35 -197 0
-31 -213 -35 -217 0
-31 -234 -35 -238 0
-31 -256 -35 -260 0
-39 -58 -43 -62 0
-39 -69 -43 -73 0
-39 -108 -43 -112 0
-39 -156 -43 -160 0
-39 -174 -43 -178 0
-39 -234 -43 -238 0
-39 -256 -43 -260 0
-48 -58 -52 -62 0
-48 -69 -52 -73 0
-48 -94 -52 -98 0
-48 -123 -52 -127 0
-48 -139 -52 -143 0
-48 -193 -52 -197 0
-48 -213 -52 -217 0
-58 -69 -62 -73 0
-58 -139 -62 -143 0
-58 -156 -62 -160 0
-58 -193 -62 -197 0
-58 -256 -62 -260 0
-69 -123 -73 -127 0
-69 -174 -73 -178 0
-69 -213 -73 -217 0
-69 -234 -73 -238 0
-81 -94 -85 -98 0
-81 -108 -85 -112 0
-81 -123 -85 -127 0
-81 -139 -85 -143 0
-81 -156 -85 -160 0
-81 -174 -85 -178 0
-94 -139 -98 -143 0
-94 -174 -98 -178 0
-94 -213 -98 -217 0
-94 -256 -98 -260 0
-108 -123 -112 -127 0
-108 -156 -112 -160 0
-108 -193 -112 -197 0
-108 -234 -112 -238 0
-123 -139 -127 -143 0
-123 -174 -127 -178 0
-123 -193 -127 -197 0
-123 -234 -127 -238 0
-139 -156 -143 -160 0
-139 -234 -143 -238 0
-139 -256 -143 -260 0
-156 -174 -160 -178 0
-156 -193 -160 -197 0
-156 -213 -160 -217 0
-174 -213 -178 -217 0
-174 -256 -178 -260 0
-193 -213 -197 -217 0
-193 -256 -197 -260 0
-213 -234 -217 -238 0
-234 -256 -238 -260 0
-24 -31 -81 -36 -86 0
-24 -31 -94 -36 -99 0
-24 -31 -108 -36 -113 0
-24 -31 -193 -36 -198 0
-24 -31 -213 -36 -218 0
-24 -31 -234 -36 -239 0
-24 -31 -256 -36 -261 0
-24 -39 -58 -44 -63 0
-24 -39 -69 -44 -74 0
-24 -39 -108 -44 -113 0
-24 -39 -156 -44 -161 0
-24 -39 -174 -44 -179 0
-24 -39 -234 -44 -239 0
-24 -39 -256 -44 -261 0
-24 -48 -58 -53 -63 0
-24 -48 -69 -53 -74 0
-24 -48 -94 -53 -99 0
-24 -48 -123 -53 -128 0
-24 -48 -139 -53 -144 0
-24 -48 -193 -53 -198 0
-24 -48 -213 -53 -218 0
-24 -58 -69 -63 -74 0
-24 -58 -139 -63 -144 0
-24 -58 -156 -63 -161 0
-24 -58 -193 -63 -198 0
-24 -58 -256 -63 -261 0
-24 -69 -123 -74 -128 0
-24 -69 -174 -74 -179 0
-24 -69 -213 -74 -218 0
-24 -69 -234 -74 -239 0
-24 -81 -94 -86 -99 0
-24 -81 -108 -86 -113 0
-24 -81 -123 -86 -128 0
-24 -81 -139 -86 -144 0
-24 -81 -156 -86 -161 0
-24 -81 -174 -86 -179 0
-24 -94 -139 -99 -144 0
-24 -94 -174 -99 -179 0
-24 -94 -213 -99 -218 0
-24 -94 -256 -99 -261 0
-24 -108 -123 -113 -128 0
-24 -108 -156 -113 -161 0
-24 -108 -193 -113 -198 0
-24 -108 -234 -113 -239 0
-24 -123 -139 -128 -144 0
-24 -123 -174 -128 -179 0
-24 -123 -193 -128 -198 0
-24 -123 -234 -128 -239 0
-24 -139 -156 -144 -161 0
-24 -139 -234 -144 -239 0
-24 -139 -256 -144 -261 0
-24 -156 -174 -161 -179 0
-24 -156 -193 -161 -198 0
-24 -156 -213 -161 -218 0
-24 -174 -213 -179 -218 0
-24 -174 -256 -179 -261 0
-24 -193 -213 -198 -218 0
-24 -193 -256 -198 -261 0
-24 -213 -234 -218 -239 0
-24 -234 -256 -239 -261 0
-31 -81 -94 0
-31 -81 -108 0
-31 -94 -213 0
-31 -94 -256 0
-31 -108 -193 0
-31 -108 -234 0
-31 -193 -213 0
-31 -193 -256 0
-31 -213 -234 0
-31 -234 -256 0
-39 -58 -69 0
-39 -58 -156 0
-39 -58 -256 0
-39 -69 -174 0
-39 -69 -234 0
-39 -108 -156 0
-39 -108 -234 0
-39 -156 -174 0
-39 -174 -256 0
-39 -234 -256 0
-48 -58 -69 0
-48 -58 -139 0
-48 -58 -193 0
-48 -69 -123 0
-48 -69 -213 0
-48 -94 -139 0
-48 -94 -213 0
-48 -123 -139 0
-48 -123 -193 0
-48 -193 -213 0
-58 -139 -156 0
-58 -139 -256 0
-58 -156 -193 0
-58 -193 -256 0
-69 -123 -174 0
-69 -123 -234 0
-69 -174 -213 0
-69 -213 -234 0
-81 -94 -139 0
-81 -94 -174 0
-81 -108 -123 0
-81 -108 -156 0
-81 -123 -139 0
-81 -123 -174 0
-81 -139 -156 0
-81 -156 -174 0
-94 -139 -256 0
-94 -174 -213 0
-94 -174 -256 0
-108 -123 -193 0
-108 -123 -234 0
-108 -156 -193 0
-123 -139 -234 0
-139 -234 -256 0
-156 -174 -213 0
-156 -193 -213 0
-10 -32 -82 -33 -83 0
-10 -32 -95 -33 -96 0
-10 -32 -109 -33 -110 0
-10 -32 -194 -33 -195 0
-10 -32 -214 -33 -215 0
-10 -32 -235 -33 -236 0
-10 -32 -257 -33 -258 0
-10 -40 -59 -41 -60 0
-10 -40 -70 -41 -71 0
-10 -40 -109 -41 -110 0
-10 -40 -157 -41 -158 0
-10 -40 -175 -41 -176 0
-10 -40 -235 -41 -236 0
-10 -40 -257 -41 -258 0
-10 -49 -59 -50 -60 0
-10 -49 -70 -50 -71 0
-10 -49 -95 -50 -96 0
-10 -49 -124 -50 -125 0
-10 -49 -140 -50 -141 0
-10 -49 -194 -50 -195 0
-10 -49 -214 -50 -215 0
-10 -59 -70 -60 -71 0
-10 -59 -140 -60 -141 0
-10 -59 -157 -60 -158 0
-10 -59 -194 -60 -195 0
-10 -59 -257 -60 -258 0
-10 -70 -124 -71 -125 0
-10 -70 -175 -71 -176 0
-10 -70 -214 -71 -215 0
-10 -70 -235 -71 -236 0
-10 -82 -95 -83 -96 0
-10 -82 -109 -83 -110 0
-10 -82 -124 -83 -125 0
-10 -82 -140 -83 -141 0
-10 -82 -157 -83 -158 0
-10 -82 -175 -83 -176 0
-10 -95 -140 -96 -141 0
-10 -95 -175 -96 -176 0
-10 -95 -214 -96 -215 0
-10 -95 -257 -96 -258 0
-10 -109 -124 -110 -125 0
-10 -109 -157 -110 -158 0
-10 -109 -194 -110 -195 0
-10 -109 -235 -110 -236 0
-10 -124 -140 -125 -141 0
-10 -124 -175 -125 -176 0
-10 -124 -194 -125 -195 0
-10 -124 -235 -125 -236 0
-10 -140 -157 -141 -158 0
-10 -140 -235 -141 -236 0
-10 -140 -257 -141 -258 0
-10 -157 -175 -158 -176 0
-10 -157 -194 -158 -195 0
-10 -157 -214 -158 -215 0
-10 -175 -214 -176 -215 0
-10 -175 -257 -176 -258 0
-10 -194 -214 -195 -215 0
-10 -194 -257 -195 -258 0
-10 -214 -235 -215 -236 0
-10 -235 -257 -236 -258 0
-19 -32 -82 -35 -85 0
-19 -32 -95 -35 -98 0
-19 -32 -109 -35 -112 0
-19 -32 -194 -35 -197 0
-19 -32 -214 -35 -217 0
-19 -32 -235 -35 -238 0
-19 -32 -257 -35 -260 0
-19 -40 -59 -43 -62 0
-19 -40 -70 -43 -73 0
-19 -40 -109 -43 -112 0
-19 -40 -157 -43 -160 0
-19 -40 -175 -43 -178 0
-19 -40 -235 -43 -238 0
-19 -40 -257 -43 -260 0
-19 -49 -59 -52 -62 0
-19 -49 -70 -52 -73 0
-19 -49 -95 -52 -98 0
-19 -49 -124 -52 -127 0
-19 -49 -140 -52 -143 0
-19 -49 -194 -52 -197 0
-19 -49 -214 -52 -217 0
-19 -59 -70 -62 -73 0
-19 -59 -140 -62 -143 0
-19 -59 -157 -62 -160 0
-19 -59 -194 -62 -197 0
-19 -59 -257 -62 -260 0
-19 -70 -124 -73 -127 0
-19 -70 -175 -73 -178 0
-19 -70 -214 -73 -217 0
-19 -70 -235 -73 -238 0
-19 -82 -95 -85 -98 0
-19 -82 -109 -85 -112 0
-19 -82 -124 -85 -127 0
-19 -82 -140 -85 -143 0
-19 -82 -157 -85 -160 0
-19 -82 -175 -85 -178 0
-19 -95 -140 -98 -143 0
-19 -95 -175 -98 -178 0
-19 -95 -214 -98 -217 0
-19 -95 -257 -98 -260 0
-19 -109 -124 -112 -127 0
-19 -109 -157 -112 -160 0
-19 -109 -194 -112 -197 0
-19 -109 -235 -112 -238 0
-19 -124 -140 -127 -143 0
-19 -124 -175 -127 -178 0
-19 -124 -194 -127 -197 0
-19 -124 -235 -127 -238 0
-19 -140 -157 -143 -160 0
-19 -140 -235 -143 -238 0
-19 -140 -257 -143 -260 0
-19 -157 -175 -160 -178 0
-19 -157 -194 -160 -197 0
-19 -157 -214 -160 -217 0
-19 -175 -214 -178 -217 0
-19 -175 -257 -178 -260 0
-19 -194 -214 -197 -217 0
-19 -194 -257 -197 -260 0
-19 -214 -235 -217 -238 0
-19 -235 -257 -238 -260 0
-32 -82 -95 0
-32 -82 -109 0
-32 -95 -214 0
-32 -95 -257 0
-32 -109 -194 0
-32 -109 -235 0
-32 -194 -214 0
-32 -194 -257 0
-32 -214 -235 0
-32 -235 -257 0
-40 -59 -70 0
-40 -59 -157 0
-40 -59 -257 0
-40 -70 -175 0
-40 -70 -235 0
-40 -109 -157 0
-40 -109 -235 0
-40 -157 -175 0
-40 -175 -257 0
-40 -235 -257 0
-49 -59 -70 0
-49 -59 -140 0
-49 -59 -194 0
-49 -70 -124 0
-49 -70 -214 0
-49 -95 -140 0
-49 -95 -214 0
-49 -124 -140 0
-49 -124 -194 0
-49 -194 -214 0
-59 -140 -157 0
-59 -140 -257 0
-59 -157 -194 0
-59 -194 -257 0
-70 -124 -175 0
-70 -124 -235 0
-70 -175 -214 0
-70 -214 -235 0
-82 -95 -140 0
-82 -95 -175 0
-82 -109 -124 0
-82 -109 -157 0
-82 -124 -140 0
-82 -124 -175 0
-82 -140 -157 0
-82 -157 -175 0
-95 -140 -257 0
-95 -175 -214 0
-95 -175 -257 0
-109 -124 -194 0
-109 -124 -235 0
-109 -157 -194 0
-124 -140 -235 0
-140 -235 -257 0
-157 -175 -214 0
-157 -194 -214 0
-33 -83 -34 -84 0
-33 -96 -34 -97 0
-33 -110 -34 -111 0
-33 -195 -34 -196 0
-33 -215 -34 -216 0
-33 -236 -34 -237 0
-33 -258 -34 -259 0
-41 -60 -42 -61 0
-41 -71 -42 -72 0
-41 -110 -42 -111 0
-41 -158 -42 -159 0
-41 -176 -42 -177 0
-41 -236 -42 -237 0
-41 -258 -42 -259 0
-50 -60 -51 -61 0
-50 -71 -51 -72 0
-50 -96 -51 -97 0
-50 -125 -51 -126 0
-50 -141 -51 -142 0
-50 -195 -51 -196 0
-50 -215 -51 -216 0
-60 -71 -61 -72 0
-60 -141 -61 -142 0
-60 -158 -61 -159 0
-60 -195 -61 -196 0
-60 -258 -61 -259 0
-71 -125 -72 -126 0
-71 -176 -72 -177 0
-71 -215 -72 -216 0
-71 -236 -72 -237 0
-83 -96 -84 -97 0
-83 -110 -84 -111 0
-83 -125 -84 -126 0
-83 -141 -84 -142 0
-83 -158 -84 -159 0
-83 -176 -84 -177 0
-96 -141 -97 -142 0
-96 -176 -97 -177 0
-96 -215 -97 -216 0
-96 -258 -97 -259 0
-110 -125 -111 -126 0
-110 -158 -111 -159 0
-110 -195 -111 -196 0
-110 -236 -111 -237 0
-125 -141 -126 -142 0
-125 -176 -126 -177 0
-125 -195 -126 -196 0
-125 -236 -126 -237 0
-141 -158 -142 -159 0
-141 -236 -142 -237 0
-141 -258 -142 -259 0
-158 -176 -159 -177 0
-158 -195 -159 -196 0
-158 -215 -159 -216 0
-176 -215 -177 -216 0
-176 -258 -177 -259 0
-195 -215 -196 -216 0
-195 -258 -196 -259 0
-215 -236 -216 -237 0
-236 -258 -237 -259 0
-33 -83 -96 0
-33 -83 -110 0
-33 -96 -215 0
-33 -96 -258 0
-33 -110 -195 0
-33 -110 -236 0
-33 -195 -215 0
-33 -195 -258 0
-33 -215 -236 0
-33 -236 -258 0
-41 -60 -71 0
-41 -60 -158 0
-41 -60 -258 0
-41 -71 -176 0
-41 -71 -236 0
-41 -110 -158 0
-41 -110 -236 0
-41 -158 -176 0
-41 -176 -258 0
-41 -236 -258 0
-50 -60 -71 0
-50 -60 -141 0
-50 -60 -195 0
-50 -71 -125 0
-50 -71 -215 0
-50 -96 -141 0
-50 -96 -215 0
-50 -125 -141 0
-50 -125 -195 0
-50 -195 -215 0
-60 -141 -158 0
-60 -141 -258 0
-60 -158 -195 0
-60 -195 -258 0
-71 -125 -176 0
-71 -125 -236 0
-71 -176 -215 0
-71 -215 -236 0
-83 -96 -141 0
-83 -96 -176 0
-83 -110 -125 0
-83 -110 -158 0
-83 -125 -141 0
-83 -125 -176 0
-83 -141 -158 0
-83 -158 -176 0
-96 -141 -258 0
-96 -176 -215 0
-96 -176 -258 0
-110 -125 -195 0
-110 -125 -236 0
-110 -158 -195 0
-125 -141 -236 0
-141 -236 -258 0
-158 -176 -215 0
-158 -195 -215 0
-34 -84 -35 -85 0
-34 -97 -35 -98 0
-34 -111 -35 -112 0
-34 -196 -35 -197 0
-34 -216 -35 -217 0
-34 -237 -35 -238 0
-34 -259 -35 -260 0
-42 -61 -43 -62 0
-42 -72 -43 -73 0
-42 -111 -43 -112 0
-42 -159 -43 -160 0
-42 -177 -43 -178 0
-42 -237 -43 -238 0
-42 -259 -43 -260 0
-51 -61 -52 -62 0
-51 -72 -52 -73 0
-51 -97 -52 -98 0
-51 -126 -52 -127 0
-51 -142 -52 -143 0
-51 -196 -52 -197 0
-51 -216 -52 -217 0
-61 -72 -62 -73 0
-61 -142 -62 -143 0
-61 -159 -62 -160 0
-61 -196 -62 -197 0
-61 -259 -62 -260 0
-72 -126 -73 -127 0
-72 -177 -73 -178 0
-72 -216 -73 -217 0
-72 -237 -73 -238 0
-84 -97 -85 -98 0
-84 -111 -85 -112 0
-84 -126 -85 -127 0
-84 -142 -85 -143 0
-84 -159 -85 -160 0
-84 -177 -85 -178 0
-97 -142 -98 -143 0
-97 -177 -98 -178 0
-97 -216 -98 -217 0
-97 -259 -98 -260 0
-111 -126 -112 -127 0
-111 -159 -112 -160 0
-111 -196 -112 -197 0
-111 -237 -112 -238 0
-126 -142 -127 -143 0
-126 -177 -127 -178 0
-126 -196 -127 -197 0
-126 -237 -127 -238 0
-142 -159 -143 -160 0
-142 -237 -143 -238 0
-142 -259 -143 -260 0
-159 -177 -160 -178 0
-159 -196 -160 -197 0
-159 -216 -160 -217 0
-177 -216 -178 -217 0
-177 -259 -178 -260 0
-196 -216 -197 -217 0
-196 -259 -197 -260 0
-216 -237 -217 -238 0
-237 -259 -238 -260 0
-34 -84 -36 -86 0
-34 -97 -36 -99 0
-34 -111 -36 -113 0
-34 -196 -36 -198 0
-34 -216 -36 -218 0
-34 -237 -36 -239 0
-34 -259 -36 -261 0
-42 -61 -44 -63 0
-42 -72 -44 -74 0
-42 -111 -44 -113 0
-42 -159 -44 -161 0
-42 -177 -44 -179 0
-42 -237 -44 -239 0
-42 -259 -44 -261 0
-51 -61 -53 -63 0
-51 -72 -53 -74 0
-51 -97 -53 -99 0
-51 -126 -53 -128 0
-51 -142 -53 -144 0
-51 -196 -53 -198 0
-51 -216 -53 -218 0
-61 -72 -63 -74 0
-61 -142 -63 -144 0
-61 -159 -63 -161 0
-61 -196 -63 -198 0
-61 -259 -63 -261 0
-72 -126 -74 -128 0
-72 -177 -74 -179 0
-72 -216 -74 -218 0
-72 -237 -74 -239 0
-84 -97 -86 -99 0
-84 -111 -86 -113 0
-84 -126 -86 -128 0
-84 -142 -86 -144 0
-84 -159 -86 -161 0
-84 -177 -86 -179 0
-97 -142 -99 -144 0
-97 -177 -99 -179 0
-97 -216 -99 -218 0
-97 -259 -99 -261 0
-111 -126 -113 -128 0
-111 -159 -113 -161 0
-111 -196 -113 -198 0
-111 -237 -113 -239 0
-126 -142 -128 -144 0
-126 -177 -128 -179 0
-126 -196 -128 -198 0
-126 -237 -128 -239 0
-142 -159 -144 -161 0
-142 -237 -144 -239 0
-142 -259 -144 -261 0
-159 -177 -161 -179 0
-159 -196 -161 -198 0
-159 -216 -161 -218 0
-177 -216 -179 -218 0
-177 -259 -179 -261 0
-196 -216 -198 -218 0
-196 -259 -198 -261 0
-216 -237 -218 -239 0
-237 -259 -239 -261 0
-34 -84 -97 0
-34 -84 -111 0
-34 -97 -216 0
-34 -97 -259 0
-34 -111 -196 0
-34 -111 -237 0
-34 -196 -216 0
-34 -196 -259 0
-34 -216 -237 0
-34 -237 -259 0
-42 -61 -72 0
-42 -61 -159 0
-42 -61 -259 0
-42 -72 -177 0
-42 -72 -237 0
-42 -111 -159 0
-42 -111 -237 0
-42 -159 -177 0
-42 -177 -259 0
-42 -237 -259 0
-51 -61 -72 0
-51 -61 -142 0
-51 -61 -196 0
-51 -72 -126 0
-51 -72 -216 0
-51 -97 -142 0
-51 -97 -216 0
-51 -126 -142 0
-51 -126 -196 0
-51 -196 -216 0
-61 -142 -159 0
-61 -142 -259 0
-61 -159 -196 0
-61 -196 -259 0
-72 -126 -177 0
-72 -126 -237 0
-72 -177 -216 0
-72 -216 -237 0
-84 -97 -142 0
-84 -97 -177 0
-84 -111 -126 0
-84 -111 -159 0
-84 -126 -142 0
-84 -126 -177 0
-84 -142 -159 0
-84 -159 -177 0
-97 -142 -259 0
-97 -177 -216 0
-97 -177 -259 0
-111 -126 -196 0
-111 -126 -237 0
-111 -159 -196 0
-126 -142 -237 0
-142 -237 -259 0
-159 -177 -216 0
-159 -196 -216 0
-35 -85 -98 0
-35 -85 -112 0
-35 -98 -217 0
-35 -98 -260 0
-35 -112 -197 0
-35 -112 -238 0
-35 -197 -217 0
-35 -197 -260 0
-35 -217 -238 0
-35 -238 -260 0
-43 -62 -73 0
-43 -62 -160 0
-43 -62 -260 0
-43 -73 -178 0
-43 -73 -238 0
-43 -112 -160 0
-43 -112 -238 0
-43 -160 -178 0
-43 -178 -260 0
-43 -238 -260 0
-52 -62 -73 0
-52 -62 -143 0
-52 -62 -197 0
-52 -73 -127 0
-52 -73 -217 0
-52 -98 -143 0
-52 -98 -217 0
-52 -127 -143 0
-52 -127 -197 0
-52 -197 -217 0
-62 -143 -160 0
-62 -143 -260 0
-62 -160 -197 0
-62 -197 -260 0
-73 -127 -178 0
-73 -127 -238 0
-73 -178 -217 0
-73 -217 -238 0
-85 -98 -143 0
-85 -98 -178 0
-85 -112 -127 0
-85 -112 -160 0
-85 -127 -143 0
-85 -127 -178 0
-85 -143 -160 0
-85 -160 -178 0
-98 -143 -260 0
-98 -178 -217 0
-98 -178 -260 0
-112 -127 -197 0
-112 -127 -238 0
-112 -160 -197 0
-127 -143 -238 0
-143 -238 -260 0
-160 -178 -217 0
-160 -197 -217 0
-36 -86 -99 0
-36 -86 -113 0
-36 -99 -218 0
-36 -99 -261 0
-36 -113 -198 0
-36 -113 -239 0
-36 -198 -218 0
-36 -198 -261 0
-36 -218 -239 0
-36 -239 -261 0
-44 -63 -74 0
-44 -63 -161 0
-44 -63 -261 0
-44 -74 -179 0
-44 -74 -239 0
-44 -113 -161 0
-44 -113 -239 0
-44 -161 -179 0
-44 -179 -261 0
-44 -239 -261 0
-53 -63 -74 0
-53 -63 -144 0
-53 -63 -198 0
-53 -74 -128 0
-53 -74 -218 0
-53 -99 -144 0
-53 -99 -218 0
-53 -128 -144 0
-53 -128 -198 0
-53 -198 -218 0
-63 -144 -161 0
-63 -144 -261 0
-63 -161 -198 0
-63 -198 -261 0
-74 -128 -179 0
-74 -128 -239 0
-74 -179 -218 0
-74 -218 -239 0
-86 -99 -144 0
-86 -99 -179 0
-86 -113 -128 0
-86 -113 -161 0
-86 -128 -144 0
-86 -128 -179 0
-86 -144 -161 0
-86 -161 -179 0
-99 -144 -261 0
-99 -179 -218 0
-99 -179 -261 0
-113 -128 -198 0
-113 -128 -239 0
-113 -161 -198 0
-128 -144 -239 0
-144 -239 -261 0
-161 -179 -218 0
-161 -198 -218 0
29 30 9 31 33 0
37 38 9 39 41 0
46 47 9 48 50 0
56 57 9 58 60 0
67 68 9 69 71 0
79 80 9 81 83 0
92 93 9 94 96 0
106 107 9 108 110 0
121 122 9 123 125 0
137 138 9 139 141 0
154 155 9 156 158 0
172 173 9 174 176 0
191 192 9 193 195 0
211 212 9 213 215 0
232 233 9 234 236 0
254 255 9 256 258 0
29 30 31 34 0
37 38 39 42 0
46 47 48 51 0
56 57 58 61 0
67 68 69 72 0
79 80 81 84 0
92 93 94 97 0
106 107 108 111 0
121 122 123 126 0
137 138 139 142 0
154 155 156 159 0
172 173 174 177 0
191 192 193 196 0
211 212 213 216 0
232 233 234 237 0
254 255 256 259 0
29 37 30 38 31 39 0
29 46 30 47 31 48 0
29 56 30 57 31 58 0
29 67 30 68 31 69 0
29 121 30 122 31 123 0
29 137 30 138 31 139 0
29 154 30 155 31 156 0
29 172 30 173 31 174 0
37 46 38 47 39 48 0
37 79 38 80 39 81 0
37 92 38 93 39 94 0
37 121 38 122 39 123 0
37 137 38 138 39 139 0
37 191 38 192 39 193 0
37 211 38 212 39 213 0
46 79 47 80 48 81 0
46 106 47 107 48 108 0
46 154 47 155 48 156 0
46 172 47 173 48 174 0
46 232 47 233 48 234 0
46 254 47 255 48 256 0
56 79 57 80 58 81 0
56 92 57 93 58 94 0
56 106 57 107 58 108 0
56 121 57 122 58 123 0
56 172 57 173 58 174 0
56 211 57 212 58 213 0
56 232 57 233 58 234 0
67 79 68 80 69 81 0
67 92 68 93 69 94 0
67 106 68 107 69 108 0
67 137 68 138 69 139 0
67 154 68 155 69 156 0
67 191 68 192 69 193 0
67 254 68 255 69 256 0
79 191 80 192 81 193 0
79 211 80 212 81 213 0
79 232 80 233 81 234 0
79 254 80 255 81 256 0
92 106 93 107 94 108 0
92 121 93 122 94 123 0
92 154 93 155 94 156 0
92 191 93 192 94 193 0
92 232 93 233 94 234 0
106 137 107 138 108 139 0
106 172 107 173 108 174 0
106 211 107 212 108 213 0
106 254 107 255 108 256 0
121 154 122 155 123 156 0
121 211 122 212 123 213 0
121 254 122 255 123 256 0
137 172 138 173 139 174 0
137 191 138 192 139 193 0
137 211 138 212 139 213 0
154 232 155 233 156 234 0
154 254 155 255 156 256 0
172 191 173 192 174 193 0
172 232 173 233 174 234 0
191 232 192 233 193 234 0
211 254 212 255 213 256 0
29 30 33 35 0
37 38 41 43 0
46 47 50 52 0
56 57 60 62 0
67 68 71 73 0
79 80 83 85 0
92 93 96 98 0
106 107 110 112 0
121 122 125 127 0
137 138 141 143 0
154 155 158 160 0
172 173 176 178 0
191 192 195 197 0
211 212 215 217 0
232 233 236 238 0
254 255 258 260 0
29 37 30 38 33 41 0
29 46 30 47 33 50 0
29 56 30 57 33 60 0
29 67 30 68 33 71 0
29 121 30 122 33 125 0
29 137 30 138 33 141 0
29 154 30 155 33 158 0
29 172 30 173 33 176 0
37 46 38 47 41 50 0
37 79 38 80 41 83 0
37 92 38 93 41 96 0
37 121 38 122 41 125 0
37 137 38 138 41 141 0
37 191 38 192 41 195 0
37 211 38 212 41 215 0
46 79 47 80 50 83 0
46 106 47 107 50 110 0
46 154 47 155 50 158 0
46 172 47 173 50 176 0
46 232 47 233 50 236 0
46 254 47 255 50 258 0
56 79 57 80 60 83 0
56 92 57 93 60 96 0
56 106 57 107 60 110 0
56 121 57 122 60 125 0
56 172 57 173 60 176 0
56 211 57 212 60 215 0
56 232 57 233 60 236 0
67 79 68 80 71 83 0
67 92 68 93 71 96 0
67 106 68 107 71 110 0
67 137 68 138 71 141 0
67 154 68 155 71 158 0
67 191 68 192 71 195 0
67 254 68 255 71 258 0
79 191 80 192 83 195 0
79 211 80 212 83 215 0
79 232 80 233 83 236 0
79 254 80 255 83 258 0
92 106 93 107 96 110 0
92 121 93 122 96 125 0
92 154 93 155 96 158 0
92 191 93 192 96 195 0
92 232 93 233 96 236 0
106 137 107 138 110 141 0
106 172 107 173 110 176 0
106 211 107 212 110 215 0
106 254 107 255 110 258 0
121 154 122 155 125 158 0
121 211 122 212 125 215 0
121 254 122 255 125 258 0
137 172 138 173 141 176 0
137 191 138 192 141 195 0
137 211 138 212 141 215 0
154 232 155 233 158 236 0
154 254 155 255 158 258 0
172 191 173 192 176 195 0
172 232 173 233 176 236 0
191 232 192 233 195 236 0
211 254 212 255 215 258 0
29 37 30 38 34 42 0
29 46 30 47 34 51 0
29 56 30 57 34 61 0
29 67 30 68 34 72 0
29 121 30 122 34 126 0
29 137 30 138 34 142 0
29 154 30 155 34 159 0
29 172 30 173 34 177 0
37 46 38 47 42 51 0
37 79 38 80 42 84 0
37 92 38 93 42 97 0
37 121 38 122 42 126 0
37 137 38 138 42 142 0
37 191 38 192 42 196 0
37 211 38 212 42 216 0
46 79 47 80 51 84 0
46 106 47 107 51 111 0
46 154 47 155 51 159 0
46 172 47 173 51 177 0
46 232 47 233 51 237 0
46 254 47 255 51 259 0
56 79 57 80 61 84 0
56 92 57 93 61 97 0
56 106 57 107 61 111 0
56 121 57 122 61 126 0
56 172 57 173 61 177 0
56 211 57 212 61 216 0
56 232 57 233 61 237 0
67 79 68 80 72 84 0
67 92 68 93 72 97 0
67 106 68 107 72 111 0
67 137 68 138 72 142 0
67 154 68 155 72 159 0
67 191 68 192 72 196 0
67 254 68 255 72 259 0
79 191 80 192 84 196 0
79 211 80 212 84 216 0
79 232 80 233 84 237 0
79 254 80 255 84 259 0
92 106 93 107 97 111 0
92 121 93 122 97 126 0
92 154 93 155 97 159 0
92 191 93 192 97 196 0
92 232 93 233 97 237 0
106 137 107 138 111 142 0
106 172 107 173 111 177 0
106 211 107 212 111 216 0
106 254 107 255 111 259 0
121 154 122 155 126 159 0
121 211 122 212 126 216 0
121 254 122 255 126 259 0
137 172 138 173 142 177 0
137 191 138 192 142 196 0
137 211 138 212 142 216 0
154 232 155 233 159 237 0
154 254 155 255 159 259 0
172 191 173 192 177 196 0
172 232 173 233 177 237 0
191 232 192 233 196 237 0
211 254 212 255 216 259 0
29 37 30 38 35 43 0
29 46 30 47 35 52 0
29 56 30 57 35 62 0
29 67 30 68 35 73 0
29 121 30 122 35 127 0
29 137 30 138 35 143 0
29 154 30 155 35 160 0
29 172 30 173 35 178 0
37 46 38 47 43 52 0
37 79 38 80 43 85 0
37 92 38 93 43 98 0
37 121 38 122 43 127 0
37 137 38 138 43 143 0
37 191 38 192 43 197 0
37 211 38 212 43 217 0
46 79 47 80 52 85 0
46 106 47 107 52 112 0
46 154 47 155 52 160 0
46 172 47 173 52 178 0
46 232 47 233 52 238 0
46 254 47 255 52 260 0
56 79 57 80 62 85 0
56 92 57 93 62 98 0
56 106 57 107 62 112 0
56 121 57 122 62 127 0
56 172 57 173 62 178 0
56 211 57 212 62 217 0
56 232 57 233 62 238 0
67 79 68 80 73 85 0
67 92 68 93 73 98 0
67 106 68 107 73 112 0
67 137 68 138 73 143 0
67 154 68 155 73 160 0
67 191 68 192 73 197 0
67 254 68 255 73 260 0
79 191 80 192 85 197 0
79 211 80 212 85 217 0
79 232 80 233 85 238 0
79 254 80 255 85 260 0
92 106 93 107 98 112 0
92 121 93 122 98 127 0
92 154 93 155 98 160 0
92 191 93 192 98 197 0
92 232 93 233 98 238 0
106 137 107 138 112 143 0
106 172 107 173 112 178 0
106 211 107 212 112 217 0
106 254 107 255 112 260 0
121 154 122 155 127 160 0
121 211 122 212 127 217 0
121 254 122 255 127 260 0
137 172 138 173 143 178 0
137 191 138 192 143 197 0
137 211 138 212 143 217 0
154 232 155 233 160 238 0
154 254 155 255 160 260 0
172 191 173 192 178 197 0
172 232 173 233 178 238 0
191 232 192 233 197 238 0
211 254 212 255 217 260 0
29 37 46 30 38 47 0
29 37 121 30 38 122 0
29 37 137 30 38 138 0
29 46 154 30 47 155 0
29 46 172 30 47 173 0
29 56 121 30 57 122 0
29 56 172 30 57 173 0
29 67 137 30 68 138 0
29 67 154 30 68 155 0
29 121 154 30 122 155 0
29 137 172 30 138 173 0
37 46 79 38 47 80 0
37 79 191 38 80 192 0
37 79 211 38 80 212 0
37 92 121 38 93 122 0
37 92 191 38 93 192 0
37 121 211 38 122 212 0
37 137 191 38 138 192 0
37 137 211 38 138 212 0
46 79 232 47 80 233 0
46 79 254 47 80 255 0
46 106 172 47 107 173 0
46 106 254 47 107 255 0
46 154 232 47 155 233 0
46 154 254 47 155 255 0
46 172 232 47 173 233 0
56 79 211 57 80 212 0
56 79 232 57 80 233 0
56 92 106 57 93 107 0
56 92 121 57 93 122 0
56 92 232 57 93 233 0
56 106 172 57 107 173 0
56 106 211 57 107 212 0
56 121 211 57 122 212 0
56 172 232 57 173 233 0
67 79 191 68 80 192 0
67 79 254 68 80 255 0
67 92 106 68 93 107 0
67 92 154 68 93 155 0
67 92 191 68 93 192 0
67 106 137 68 107 138 0
67 106 254 68 107 255 0
67 137 191 68 138 192 0
67 154 254 68 155 255 0
79 191 232 80 192 233 0
79 211 254 80 212 255 0
92 121 154 93 122 155 0
92 154 232 93 155 233 0
92 191 232 93 192 233 0
106 137 172 107 138 173 0
106 137 211 107 138 212 0
106 211 254 107 212 255 0
121 154 254 122 155 255 0
121 211 254 122 212 255 0
137 172 191 138 173 192 0
172 191 232 173 192 233 0
29 9 31 10 32 33 0
37 9 39 10 40 41 0
46 9 48 10 49 50 0
56 9 58 10 59 60 0
67 9 69 10 70 71 0
79 9 81 10 82 83 0
92 9 94 10 95 96 0
106 9 108 10 109 110 0
121 9 123 10 124 125 0
137 9 139 10 140 141 0
154 9 156 10 157 158 0
172 9 174 10 175 176 0
191 9 193 10 194 195 0
211 9 213 10 214 215 0
232 9 234 10 235 236 0
254 9 256 10 257 258 0
29 31 32 34 0
37 39 40 42 0
46 48 49 51 0
56 58 59 61 0
67 69 70 72 0
79 81 82 84 0
92 94 95 97 0
106 108 109 111 0
121 123 124 126 0
137 139 140 142 0
154 156 157 159 0
172 174 175 177 0
191 193 194 196 0
211 213 214 216 0
232 234 235 237 0
254 256 257 259 0
29 37 31 39 32 40 0
29 46 31 48 32 49 0
29 56 31 58 32 59 0
29 67 31 69 32 70 0
29 121 31 123 32 124 0
29 137 31 139 32 140 0
29 154 31 156 32 157 0
29 172 31 174 32 175 0
37 46 39 48 40 49 0
37 79 39 81 40 82 0
37 92 39 94 40 95 0
37 121 39 123 40 124 0
37 137 39 139 40 140 0
37 191 39 193 40 194 0
37 211 39 213 40 214 0
46 79 48 81 49 82 0
46 106 48 108 49 109 0
46 154 48 156 49 157 0
46 172 48 174 49 175 0
46 232 48 234 49 235 0
46 254 48 256 49 257 0
56 79 58 81 59 82 0
56 92 58 94 59 95 0
56 106 58 108 59 109 0
56 121 58 123 59 124 0
56 172 58 174 59 175 0
56 211 58 213 59 214 0
56 232 58 234 59 235 0
67 79 69 81 70 82 0
67 92 69 94 70 95 0
67 106 69 108 70 109 0
67 137 69 139 70 140 0
67 154 69 156 70 157 0
67 191 69 193 70 194 0
67 254 69 256 70 257 0
79 191 81 193 82 194 0
79 211 81 213 82 214 0
79 232 81 234 82 235 0
79 254 81 256 82 257 0
92 106 94 108 95 109 0
92 121 94 123 95 124 0
92 154 94 156 95 157 0
92 191 94 193 95 194 0
92 232 94 234 95 235 0
106 137 108 139 109 140 0
106 172 108 174 109 175 0
106 211 108 213 109 214 0
106 254 108 256 109 257 0
121 154 123 156 124 157 0
121 211 123 213 124 214 0
121 254 123 256 124 257 0
137 172 139 174 140 175 0
137 191 139 193 140 194 0
137 211 139 213 140 214 0
154 232 156 234 157 235 0
154 254 156 256 157 257 0
172 191 174 193 175 194 0
172 232 174 234 175 235 0
191 232 193 234 194 235 0
211 254 213 256 214 257 0
29 37 9 31 39 33 41 0
29 46 9 31 48 33 50 0
29 56 9 31 58 33 60 0
29 67 9 31 69 33 71 0
29 121 9 31 123 33 125 0
29 137 9 31 139 33 141 0
29 154 9 31 156 33 158 0
29 172 9 31 174 33 176 0
37 46 9 39 48 41 50 0
37 79 9 39 81 41 83 0
37 92 9 39 94 41 96 0
37 121 9 39 123 41 125 0
37 137 9 39 139 41 141 0
37 191 9 39 193 41 195 0
37 211 9 39 213 41 215 0
46 79 9 48 81 50 83 0
46 106 9 48 108 50 110 0
46 154 9 48 156 50 158 0
46 172 9 48 174 50 176 0
46 232 9 48 234 50 236 0
46 254 9 48 256 50 258 0
56 79 9 58 81 60 83 0
56 92 9 58 94 60 96 0
56 106 9 58 108 60 110 0
56 121 9 58 123 60 125 0
56 172 9 58 174 60 176 0
56 211 9 58 213 60 215 0
56 232 9 58 234 60 236 0
67 79 9 69 81 71 83 0
67 92 9 69 94 71 96 0
67 106 9 69 108 71 110 0
67 137 9 69 139 71 141 0
67 154 9 69 156 71 158 0
67 191 9 69 193 71 195 0
67 254 9 69 256 71 258 0
79 191 9 81 193 83 195 0
79 211 9 81 213 83 215 0
79 232 9 81 234 83 236 0
79 254 9 81 256 83 258 0
92 106 9 94 108 96 110 0
92 121 9 94 123 96 125 0
92 154 9 94 156 96 158 0
92 191 9 94 193 96 195 0
92 232 9 94 234 96 236 0
106 137 9 108 139 110 141 0
106 172 9 108 174 110 176 0
106 211 9 108 213 110 215 0
106 254 9 108 256 110 258 0
121 154 9 123 156 125 158 0
121 211 9 123 213 125 215 0
121 254 9 123 256 125 258 0
137 172 9 139 174 141 176 0
137 191 9 139 193 141 195 0
137 211 9 139 213 141 215 0
154 232 9 156 234 158 236 0
154 254 9 156 256 158 258 0
172 191 9 174 193 176 195 0
172 232 9 174 234 176 236 0
191 232 9 193 234 195 236 0
211 254 9 213 256 215 258 0
29 37 31 39 34 42 0
29 46 31 48 34 51 0
29 56 31 58 34 61 0
29 67 31 69 34 72 0
29 121 31 123 34 126 0
29 137 31 139 34 142 0
29 154 31 156 34 159 0
29 172 31 174 34 177 0
37 46 39 48 42 51 0
37 79 39 81 42 84 0
37 92 39 94 42 97 0
37 121 39 123 42 126 0
37 137 39 139 42 142 0
37 191 39 193 42 196 0
37 211 39 213 42 216 0
46 79 48 81 51 84 0
46 106 48 108 51 111 0
46 154 48 156 51 159 0
46 172 48 174 51 177 0
46 232 48 234 51 237 0
46 254 48 256 51 259 0
56 79 58 81 61 84 0
56 92 58 94 61 97 0
56 106 58 108 61 111 0
56 121 58 123 61 126 0
56 172 58 174 61 177 0
56 211 58 213 61 216 0
56 232 58 234 61 237 0
67 79 69 81 72 84 0
67 92 69 94 72 97 0
67 106 69 108 72 111 0
67 137 69 139 72 142 0
67 154 69 156 72 159 0
67 191 69 193 72 196 0
67 254 69 256 72 259 0
79 191 81 193 84 196 0
79 211 81 213 84 216 0
79 232 81 234 84 237 0
79 254 81 256 84 259 0
92 106 94 108 97 111 0
92 121 94 123 97 126 0
92 154 94 156 97 159 0
92 191 94 193 97 196 0
92 232 94 234 97 237 0
106 137 108 139 111 142 0
106 172 108 174 111 177 0
106 211 108 213 111 216 0
106 254 108 256 111 259 0
121 154 123 156 126 159 0
121 211 123 213 126 216 0
121 254 123 256 126 259 0
137 172 139 174 142 177 0
137 191 139 193 142 196 0
137 211 139 213 142 216 0
154 232 156 234 159 237 0
154 254 156 256 159 259 0
172 191 174 193 177 196 0
172 232 174 234 177 237 0
191 232 193 234 196 237 0
211 254 213 256 216 259 0
29 37 46 31 39 48 0
29 37 121 31 39 123 0
29 37 137 31 39 139 0
29 46 154 31 48 156 0
29 46 172 31 48 174 0
29 56 121 31 58 123 0
29 56 172 31 58 174 0
29 67 137 31 69 139 0
29 67 154 31 69 156 0
29 121 154 31 123 156 0
29 137 172 31 139 174 0
37 46 79 39 48 81 0
37 79 191 39 81 193 0
37 79 211 39 81 213 0
37 92 121 39 94 123 0
37 92 191 39 94 193 0
37 121 211 39 123 213 0
37 137 191 39 139 193 0
37 137 211 39 139 213 0
46 79 232 48 81 234 0
46 79 254 48 81 256 0
46 106 172 48 108 174 0
46 106 254 48 108 256 0
46 154 232 48 156 234 0
46 154 254 48 156 256 0
46 172 232 48 174 234 0
56 79 211 58 81 213 0
56 79 232 58 81 234 0
56 92 106 58 94 108 0
56 92 121 58 94 123 0
56 92 232 58 94 234 0
56 106 172 58 108 174 0
56 106 211 58 108 213 0
56 121 211 58 123 213 0
56 172 232 58 174 234 0
67 79 191 69 81 193 0
67 79 254 69 81 256 0
67 92 106 69 94 108 0
67 92 154 69 94 156 0
67 92 191 69 94 193 0
67 106 137 69 108 139 0
67 106 254 69 108 256 0
67 137 191 69 139 193 0
67 154 254 69 156 256 0
79 191 232 81 193 234 0
79 211 254 81 213 256 0
92 121 154 94 123 156 0
92 154 232 94 156 234 0
92 191 232 94 193 234 0
106 137 172 108 139 174 0
106 137 211 108 139 213 0
106 211 254 108 213 256 0
121 154 254 123 156 256 0
121 211 254 123 213 256 0
137 172 191 139 174 193 0
172 191 232 174 193 234 0
29 10 19 32 33 35 0
37 10 19 40 41 43 0
46 10 19 49 50 52 0
56 10 19 59 60 62 0
67 10 19 70 71 73 0
79 10 19 82 83 85 0
92 10 19 95 96 98 0
106 10 19 109 110 112 0
121 10 19 124 125 127 0
137 10 19 140 141 143 0
154 10 19 157 158 160 0
172 10 19 175 176 178 0
191 10 19 194 195 197 0
211 10 19 214 215 217 0
232 10 19 235 236 238 0
254 10 19 257 258 260 0
29 37 10 32 40 33 41 0
29 46 10 32 49 33 50 0
29 56 10 32 59 33 60 0
29 67 10 32 70 33 71 0
29 121 10 32 124 33 125 0
29 137 10 32 140 33 141 0
29 154 10 32 157 33 158 0
29 172 10 32 175 33 176 0
37 46 10 40 49 41 50 0
37 79 10 40 82 41 83 0
37 92 10 40 95 41 96 0
37 121 10 40 124 41 125 0
37 137 10 40 140 41 141 0
37 191 10 40 194 41 195 0
37 211 10 40 214 41 215 0
46 79 10 49 82 50 83 0
46 106 10 49 109 50 110 0
46 154 10 49 157 50 158 0
46 172 10 49 175 50 176 0
46 232 10 49 235 50 236 0
46 254 10 49 257 50 258 0
56 79 10 59 82 60 83 0
56 92 10 59 95 60 96 0
56 106 10 59 109 60 110 0
56 121 10 59 124 60 125 0
56 172 10 59 175 60 176 0
56 211 10 59 214 60 215 0
56 232 10 59 235 60 236 0
67 79 10 70 82 71 83 0
67 92 10 70 95 71 96 0
67 106 10 70 109 71 110 0
67 137 10 70 140 71 141 0
67 154 10 70 157 71 158 0
67 191 10 70 194 71 195 0
67 254 10 70 257 71 258 0
79 191 10 82 194 83 195 0
79 211 10 82 214 83 215 0
79 232 10 82 235 83 236 0
79 254 10 82 257 83 258 0
92 106 10 95 109 96 110 0
92 121 10 95 124 96 125 0
92 154 10 95 157 96 158 0
92 191 10 95 194 96 195 0
92 232 10 95 235 96 236 0
106 137 10 109 140 110 141 0
106 172 10 109 175 110 176 0
106 211 10 109 214 110 215 0
106 254 10 109 257 110 258 0
121 154 10 124 157 125 158 0
121 211 10 124 214 125 215 0
121 254 10 124 257 125 258 0
137 172 10 140 175 141 176 0
137 191 10 140 194 141 195 0
137 211 10 140 214 141 215 0
154 232 10 157 235 158 236 0
154 254 10 157 257 158 258 0
172 191 10 175 194 176 195 0
172 232 10 175 235 176 236 0
191 232 10 194 235 195 236 0
211 254 10 214 257 215 258 0
29 37 32 40 34 42 0
29 46 32 49 34 51 0
29 56 32 59 34 61 0
29 67 32 70 34 72 0
29 121 32 124 34 126 0
29 137 32 140 34 142 0
29 154 32 157 34 159 0
29 172 32 175 34 177 0
37 46 40 49 42 51 0
37 79 40 82 42 84 0
37 92 40 95 42 97 0
37 121 40 124 42 126 0
37 137 40 140 42 142 0
37 191 40 194 42 196 0
37 211 40 214 42 216 0
46 79 49 82 51 84 0
46 106 49 109 51 111 0
46 154 49 157 51 159 0
46 172 49 175 51 177 0
46 232 49 235 51 237 0
46 254 49 257 51 259 0
56 79 59 82 61 84 0
56 92 59 95 61 97 0
56 106 59 109 61 111 0
56 121 59 124 61 126 0
56 172 59 175 61 177 0
56 211 59 214 61 216 0
56 232 59 235 61 237 0
67 79 70 82 72 84 0
67 92 70 95 72 97 0
67 106 70 109 72 111 0
67 137 70 140 72 142 0
67 154 70 157 72 159 0
67 191 70 194 72 196 0
67 254 70 257 72 259 0
79 191 82 194 84 196 0
79 211 82 214 84 216 0
79 232 82 235 84 237 0
79 254 82 257 84 259 0
92 106 95 109 97 111 0
92 121 95 124 97 126 0
92 154 95 157 97 159 0
92 191 95 194 97 196 0
92 232 95 235 97 237 0
106 137 109 140 111 142 0
106 172 109 175 111 177 0
106 211 109 214 111 216 0
106 254 109 257 111 259 0
121 154 124 157 126 159 0
121 211 124 214 126 216 0
121 254 124 257 126 259 0
137 172 140 175 142 177 0
137 191 140 194 142 196 0
137 211 140 214 142 216 0
154 232 157 235 159 237 0
154 254 157 257 159 259 0
172 191 175 194 177 196 0
172 232 175 235 177 237 0
191 232 194 235 196 237 0
211 254 214 257 216 259 0
29 37 19 32 40 35 43 0
29 46 19 32 49 35 52 0
29 56 19 32 59 35 62 0
29 67 19 32 70 35 73 0
29 121 19 32 124 35 127 0
29 137 19 32 140 35 143 0
29 154 19 32 157 35 160 0
29 172 19 32 175 35 178 0
37 46 19 40 49 43 52 0
37 79 19 40 82 43 85 0
37 92 19 40 95 43 98 0
37 121 19 40 124 43 127 0
37 137 19 40 140 43 143 0
37 191 19 40 194 43 197 0
37 211 19 40 214 43 217 0
46 79 19 49 82 52 85 0
46 106 19 49 109 52 112 0
46 154 19 49 157 52 160 0
46 172 19 49 175 52 178 0
46 232 19 49 235 52 238 0
46 254 19 49 257 52 260 0
56 79 19 59 82 62 85 0
56 92 19 59 95 62 98 0
56 106 19 59 109 62 112 0
56 121 19 59 124 62 127 0
56 172 19 59 175 62 178 0
56 211 19 59 214 62 217 0
56 232 19 59 235 62 238 0
67 79 19 70 82 73 85 0
67 92 19 70 95 73 98 0
67 106 19 70 109 73 112 0
67 137 19 70 140 73 143 0
67 154 19 70 157 73 160 0
67 191 19 70 194 73 197 0
67 254 19 70 257 73 260 0
79 191 19 82 194 85 197 0
79 211 19 82 214 85 217 0
79 232 19 82 235 85 238 0
79 254 19 82 257 85 260 0
92 106 19 95 109 98 112 0
92 121 19 95 124 98 127 0
92 154 19 95 157 98 160 0
92 191 19 95 194 98 197 0
92 232 19 95 235 98 238 0
106 137 19 109 140 112 143 0
106 172 19 109 175 112 178 0
106 211 19 109 214 112 217 0
106 254 19 109 257 112 260 0
121 154 19 124 157 127 160 0
121 211 19 124 214 127 217 0
121 254 19 124 257 127 260 0
137 172 19 140 175 143 178 0
137 191 19 140 194 143 197 0
137 211 19 140 214 143 217 0
154 232 19 157 235 160 238 0
154 254 19 157 257 160 260 0
172 191 19 175 194 178 197 0
172 232 19 175 235 178 238 0
191 232 19 194 235 197 238 0
211 254 19 214 257 217 260 0
29 37 46 32 40 49 0
29 37 121 32 40 124 0
29 37 137 32 40 140 0
29 46 154 32 49 157 0
29 46 172 32 49 175 0
29 56 121 32 59 124 0
29 56 172 32 59 175 0
29 67 137 32 70 140 0
29 67 154 32 70 157 0
29 121 154 32 124 157 0
29 137 172 32 140 175 0
37 46 79 40 49 82 0
37 79 191 40 82 194 0
37 79 211 40 82 214 0
37 92 121 40 95 124 0
37 92 191 40 95 194 0
37 121 211 40 124 214 0
37 137 191 40 140 194 0
37 137 211 40 140 214 0
46 79 232 49 82 235 0
46 79 254 49 82 257 0
46 106 172 49 109 175 0
46 106 254 49 109 257 0
46 154 232 49 157 235 0
46 154 254 49 157 257 0
46 172 232 49 175 235 0
56 79 211 59 82 214 0
56 79 232 59 82 235 0
56 92 106 59 95 109 0
56 92 121 59 95 124 0
56 92 232 59 95 235 0
56 106 172 59 109 175 0
56 106 211 59 109 214 0
56 121 211 59 124 214 0
56 172 232 59 175 235 0
67 79 191 70 82 194 0
67 79 254 70 82 257 0
67 92 106 70 95 109 0
67 92 154 70 95 157 0
67 92 191 70 95 194 0
67 106 137 70 109 140 0
67 106 254 70 109 257 0
67 137 191 70 140 194 0
67 154 254 70 157 257 0
79 191 232 82 194 235 0
79 211 254 82 214 257 0
92 121 154 95 124 157 0
92 154 232 95 157 235 0
92 191 232 95 194 235 0
106 137 172 109 140 175 0
106 137 211 109 140 214 0
106 211 254 109 214 257 0
121 154 254 124 157 257 0
121 211 254 124 214 257 0
137 172 191 140 175 194 0
172 191 232 175 194 235 0
29 37 33 41 35 43 0
29 46 33 50 35 52 0
29 56 33 60 35 62 0
29 67 33 71 35 73 0
29 121 33 125 35 127 0
29 137 33 141 35 143 0
29 154 33 158 35 160 0
29 172 33 176 35 178 0
37 46 41 50 43 52 0
37 79 41 83 43 85 0
37 92 41 96 43 98 0
37 121 41 125 43 127 0
37 137 41 141 43 143 0
37 191 41 195 43 197 0
37 211 41 215 43 217 0
46 79 50 83 52 85 0
46 106 50 110 52 112 0
46 154 50 158 52 160 0
46 172 50 176 52 178 0
46 232 50 236 52 238 0
46 254 50 258 52 260 0
56 79 60 83 62 85 0
56 92 60 96 62 98 0
56 106 60 110 62 112 0
56 121 60 125 62 127 0
56 172 60 176 62 178 0
56 211 60 215 62 217 0
56 232 60 236 62 238 0
67 79 71 83 73 85 0
67 92 71 96 73 98 0
67 106 71 110 73 112 0
67 137 71 141 73 143 0
67 154 71 158 73 160 0
67 191 71 195 73 197 0
67 254 71 258 73 260 0
79 191 83 195 85 197 0
79 211 83 215 85 217 0
79 232 83 236 85 238 0
79 254 83 258 85 260 0
92 106 96 110 98 112 0
92 121 96 125 98 127 0
92 154 96 158 98 160 0
92 191 96 195 98 197 0
92 232 96 236 98 238 0
106 137 110 141 112 143 0
106 172 110 176 112 178 0
106 211 110 215 112 217 0
106 254 110 258 112 260 0
121 154 125 158 127 160 0
121 211 125 215 127 217 0
121 254 125 258 127 260 0
137 172 141 176 143 178 0
137 191 141 195 143 197 0
137 211 141 215 143 217 0
154 232 158 236 160 238 0
154 254 158 258 160 260 0
172 191 176 195 178 197 0
172 232 176 236 178 238 0
191 232 195 236 197 238 0
211 254 215 258 217 260 0
29 37 46 33 41 50 0
29 37 121 33 41 125 0
29 37 137 33 41 141 0
29 46 154 33 50 158 0
29 46 172 33 50 176 0
29 56 121 33 60 125 0
29 56 172 33 60 176 0
29 67 137 33 71 141 0
29 67 154 33 71 158 0
29 121 154 33 125 158 0
29 137 172 33 141 176 0
37 46 79 41 50 83 0
37 79 191 41 83 195 0
37 79 211 41 83 215 0
37 92 121 41 96 125 0
37 92 191 41 96 195 0
37 121 211 41 125 215 0
37 137 191 41 141 195 0
37 137 211 41 141 215 0
46 79 232 50 83 236 0
46 79 254 50 83 258 0
46 106 172 50 110 176 0
46 106 254 50 110 258 0
46 154 232 50 158 236 0
46 154 254 50 158 258 0
46 172 232 50 176 236 0
56 79 211 60 83 215 0
56 79 232 60 83 236 0
56 92 106 60 96 110 0
56 92 121 60 96 125 0
56 92 232 60 96 236 0
56 106 172 60 110 176 0
56 106 211 60 110 215 0
56 121 211 60 125 215 0
56 172 232 60 176 236 0
67 79 191 71 83 195 0
67 79 254 71 83 258 0
67 92 106 71 96 110 0
67 92 154 71 96 158 0
67 92 191 71 96 195 0
67 106 137 71 110 141 0
67 106 254 71 110 258 0
67 137 191 71 141 195 0
67 154 254 71 158 258 0
79 191 232 83 195 236 0
79 211 254 83 215 258 0
92 121 154 96 125 158 0
92 154 232 96 158 236 0
92 191 232 96 195 236 0
106 137 172 110 141 176 0
106 137 211 110 141 215 0
106 211 254 110 215 258 0
121 154 254 125 158 258 0
121 211 254 125 215 258 0
137 172 191 141 176 195 0
172 191 232 176 195 236 0
29 37 46 34 42 51 0
29 37 121 34 42 126 0
29 37 137 34 42 142 0
29 46 154 34 51 159 0
29 46 172 34 51 177 0
29 56 121 34 61 126 0
29 56 172 34 61 177 0
29 67 137 34 72 142 0
29 67 154 34 72 159 0
29 121 154 34 126 159 0
29 137 172 34 142 177 0
37 46 79 42 51 84 0
37 79 191 42 84 196 0
37 79 211 42 84 216 0
37 92 121 42 97 126 0
37 92 191 42 97 196 0
37 121 211 42 126 216 0
37 137 191 42 142 196 0
37 137 211 42 142 216 0
46 79 232 51 84 237 0
46 79 254 51 84 259 0
46 106 172 51 111 177 0
46 106 254 51 111 259 0
46 154 232 51 159 237 0
46 154 254 51 159 259 0
46 172 232 51 177 237 0
56 79 211 61 84 216 0
56 79 232 61 84 237 0
56 92 106 61 97 111 0
56 92 121 61 97 126 0
56 92 232 61 97 237 0
56 106 172 61 111 177 0
56 106 211 61 111 216 0
56 121 211 61 126 216 0
56 172 232 61 177 237 0
67 79 191 72 84 196 0
67 79 254 72 84 259 0
67 92 106 72 97 111 0
67 92 154 72 97 159 0
67 92 191 72 97 196 0
67 106 137 72 111 142 0
67 106 254 72 111 259 0
67 137 191 72 142 196 0
67 154 254 72 159 259 0
79 191 232 84 196 237 0
79 211 254 84 216 259 0
92 121 154 97 126 159 0
92 154 232 97 159 237 0
92 191 232 97 196 237 0
106 137 172 111 142 177 0
106 137 211 111 142 216 0
106 211 254 111 216 259 0
121 154 254 126 159 259 0
121 211 254 126 216 259 0
137 172 191 142 177 196 0
172 191 232 177 196 237 0
29 37 46 35 43 52 0
29 37 121 35 43 127 0
29 37 137 35 43 143 0
29 46 154 35 52 160 0
29 46 172 35 52 178 0
29 56 121 35 62 127 0
29 56 172 35 62 178 0
29 67 137 35 73 143 0
29 67 154 35 73 160 0
29 121 154 35 127 160 0
29 137 172 35 143 178 0
37 46 79 43 52 85 0
37 79 191 43 85 197 0
37 79 211 43 85 217 0
37 92 121 43 98 127 0
37 92 191 43 98 197 0
37 121 211 43 127 217 0
37 137 191 43 143 197 0
37 137 211 43 143 217 0
46 79 232 52 85 238 0
46 79 254 52 85 260 0
46 106 172 52 112 178 0
46 106 254 52 112 260 0
46 154 232 52 160 238 0
46 154 254 52 160 260 0
46 172 232 52 178 238 0
56 79 211 62 85 217 0
56 79 232 62 85 238 0
56 92 106 62 98 112 0
56 92 121 62 98 127 0
56 92 232 62 98 238 0
56 106 172 62 112 178 0
56 106 211 62 112 217 0
56 121 211 62 127 217 0
56 172 232 62 178 238 0
67 79 191 73 85 197 0
67 79 254 73 85 260 0
67 92 106 73 98 112 0
67 92 154 73 98 160 0
67 92 191 73 98 197 0
67 106 137 73 112 143 0
67 106 254 73 112 260 0
67 137 191 73 143 197 0
67 154 254 73 160 260 0
79 191 232 85 197 238 0
79 211 254 85 217 260 0
92 121 154 98 127 160 0
92 154 232 98 160 238 0
92 191 232 98 197 238 0
106 137 172 112 143 178 0
106 137 211 112 143 217 0
106 211 254 112 217 260 0
121 154 254 127 160 260 0
121 211 254 127 217 260 0
137 172 191 143 178 197 0
172 191 232 178 197 238 0
30 38 9 31 39 33 41 0
30 47 9 31 48 33 50 0
30 57 9 31 58 33 60 0
30 68 9 31 69 33 71 0
30 122 9 31 123 33 125 0
30 138 9 31 139 33 141 0
30 155 9 31 156 33 158 0
30 173 9 31 174 33 176 0
38 47 9 39 48 41 50 0
38 80 9 39 81 41 83 0
38 93 9 39 94 41 96 0
38 122 9 39 123 41 125 0
38 138 9 39 139 41 141 0
38 192 9 39 193 41 195 0
38 212 9 39 213 41 215 0
47 80 9 48 81 50 83 0
47 107 9 48 108 50 110 0
47 155 9 48 156 50 158 0
47 173 9 48 174 50 176 0
47 233 9 48 234 50 236 0
47 255 9 48 256 50 258 0
57 80 9 58 81 60 83 0
57 93 9 58 94 60 96 0
57 107 9 58 108 60 110 0
57 122 9 58 123 60 125 0
57 173 9 58 174 60 176 0
57 212 9 58 213 60 215 0
57 233 9 58 234 60 236 0
68 80 9 69 81 71 83 0
68 93 9 69 94 71 96 0
68 107 9 69 108 71 110 0
68 138 9 69 139 71 141 0
68 155 9 69 156 71 158 0
68 192 9 69 193 71 195 0
68 255 9 69 256 71 258 0
80 192 9 81 193 83 195 0
80 212 9 81 213 83 215 0
80 233 9 81 234 83 236 0
80 255 9 81 256 83 258 0
93 107 9 94 108 96 110 0
93 122 9 94 123 96 125 0
93 155 9 94 156 96 158 0
93 192 9 94 193 96 195 0
93 233 9 94 234 96 236 0
107 138 9 108 139 110 141 0
107 173 9 108 174 110 176 0
107 212 9 108 213 110 215 0
107 255 9 108 256 110 258 0
122 155 9 123 156 125 158 0
122 212 9 123 213 125 215 0
122 255 9 123 256 125 258 0
138 173 9 139 174 141 176 0
138 192 9 139 193 141 195 0
138 212 9 139 213 141 215 0
155 233 9 156 234 158 236 0
155 255 9 156 256 158 258 0
173 192 9 174 193 176 195 0
173 233 9 174 234 176 236 0
192 233 9 193 234 195 236 0
212 255 9 213 256 215 258 0
30 38 31 39 34 42 0
30 47 31 48 34 51 0
30 57 31 58 34 61 0
30 68 31 69 34 72 0
30 122 31 123 34 126 0
30 138 31 139 34 142 0
30 155 31 156 34 159 0
30 173 31 174 34 177 0
38 47 39 48 42 51 0
38 80 39 81 42 84 0
38 93 39 94 42 97 0
38 122 39 123 42 126 0
38 138 39 139 42 142 0
38 192 39 193 42 196 0
38 212 39 213 42 216 0
47 80 48 81 51 84 0
47 107 48 108 51 111 0
47 155 48 156 51 159 0
47 173 48 174 51 177 0
47 233 48 234 51 237 0
47 255 48 256 51 259 0
57 80 58 81 61 84 0
57 93 58 94 61 97 0
57 107 58 108 61 111 0
57 122 58 123 61 126 0
57 173 58 174 61 177 0
57 212 58 213 61 216 0
57 233 58 234 61 237 0
68 80 69 81 72 84 0
68 93 69 94 72 97 0
68 107 69 108 72 111 0
68 138 69 139 72 142 0
68 155 69 156 72 159 0
68 192 69 193 72 196 0
68 255 69 256 72 259 0
80 192 81 193 84 196 0
80 212 81 213 84 216 0
80 233 81 234 84 237 0
80 255 81 256 84 259 0
93 107 94 108 97 111 0
93 122 94 123 97 126 0
93 155 94 156 97 159 0
93 192 94 193 97 196 0
93 233 94 234 97 237 0
107 138 108 139 111 142 0
107 173 108 174 111 177 0
107 212 108 213 111 216 0
107 255 108 256 111 259 0
122 155 123 156 126 159 0
122 212 123 213 126 216 0
122 255 123 256 126 259 0
138 173 139 174 142 177 0
138 192 139 193 142 196 0
138 212 139 213 142 216 0
155 233 156 234 159 237 0
155 255 156 256 159 259 0
173 192 174 193 177 196 0
173 233 174 234 177 237 0
192 233 193 234 196 237 0
212 255 213 256 216 259 0
30 38 47 31 39 48 0
30 38 122 31 39 123 0
30 38 138 31 39 139 0
30 47 155 31 48 156 0
30 47 173 31 48 174 0
30 57 122 31 58 123 0
30 57 173 31 58 174 0
30 68 138 31 69 139 0
30 68 155 31 69 156 0
30 122 155 31 123 156 0
30 138 173 31 139 174 0
38 47 80 39 48 81 0
38 80 192 39 81 193 0
38 80 212 39 81 213 0
38 93 122 39 94 123 0
38 93 192 39 94 193 0
38 122 212 39 123 213 0
38 138 192 39 139 193 0
38 138 212 39 139 213 0
47 80 233 48 81 234 0
47 80 255 48 81 256 0
47 107 173 48 108 174 0
47 107 255 48 108 256 0
47 155 233 48 156 234 0
47 155 255 48 156 256 0
47 173 233 48 174 234 0
57 80 212 58 81 213 0
57 80 233 58 81 234 0
57 93 107 58 94 108 0
57 93 122 58 94 123 0
57 93 233 58 94 234 0
57 107 173 58 108 174 0
57 107 212 58 108 213 0
57 122 212 58 123 213 0
57 173 233 58 174 234 0
68 80 192 69 81 193 0
68 80 255 69 81 256 0
68 93 107 69 94 108 0
68 93 155 69 94 156 0
68 93 192 69 94 193 0
68 107 138 69 108 139 0
68 107 255 69 108 256 0
68 138 192 69 139 193 0
68 155 255 69 156 256 0
80 192 233 81 193 234 0
80 212 255 81 213 256 0
93 122 155 94 123 156 0
93 155 233 94 156 234 0
93 192 233 94 193 234 0
107 138 173 108 139 174 0
107 138 212 108 139 213 0
107 212 255 108 213 256 0
122 155 255 123 156 256 0
122 212 255 123 213 256 0
138 173 192 139 174 193 0
173 192 233 174 193 234 0
30 38 33 41 35 43 0
30 47 33 50 35 52 0
30 57 33 60 35 62 0
30 68 33 71 35 73 0
30 122 33 125 35 127 0
30 138 33 141 35 143 0
30 155 33 158 35 160 0
30 173 33 176 35 178 0
38 47 41 50 43 52 0
38 80 41 83 43 85 0
38 93 41 96 43 98 0
38 122 41 125 43 127 0
38 138 41 141 43 143 0
38 192 41 195 43 197 0
38 212 41 215 43 217 0
47 80 50 83 52 85 0
47 107 50 110 52 112 0
47 155 50 158 52 160 0
47 173 50 176 52 178 0
47 233 50 236 52 238 0
47 255 50 258 52 260 0
57 80 60 83 62 85 0
57 93 60 96 62 98 0
57 107 60 110 62 112 0
57 122 60 125 62 127 0
57 173 60 176 62 178 0
57 212 60 215 62 217 0
57 233 60 236 62 238 0
68 80 71 83 73 85 0
68 93 71 96 73 98 0
68 107 71 110 73 112 0
68 138 71 141 73 143 0
68 155 71 158 73 160 0
68 192 71 195 73 197 0
68 255 71 258 73 260 0
80 192 83 195 85 197 0
80 212 83 215 85 217 0
80 233 83 236 85 238 0
80 255 83 258 85 260 0
93 107 96 110 98 112 0
93 122 96 125 98 127 0
93 155 96 158 98 160 0
93 192 96 195 98 197 0
93 233 96 236 98 238 0
107 138 110 141 112 143 0
107 173 110 176 112 178 0
107 212 110 215 112 217 0
107 255 110 258 112 260 0
122 155 125 158 127 160 0
122 212 125 215 127 217 0
122 255 125 258 127 260 0
138 173 141 176 143 178 0
138 192 141 195 143 197 0
138 212 141 215 143 217 0
155 233 158 236 160 238 0
155 255 158 258 160 260 0
173 192 176 195 178 197 0
173 233 176 236 178 238 0
192 233 195 236 197 238 0
212 255 215 258 217 260 0
30 38 47 33 41 50 0
30 38 122 33 41 125 0
30 38 138 33 41 141 0
30 47 155 33 50 158 0
30 47 173 33 50 176 0
30 57 122 33 60 125 0
30 57 173 33 60 176 0
30 68 138 33 71 141 0
30 68 155 33 71 158 0
30 122 155 33 125 158 0
30 138 173 33 141 176 0
38 47 80 41 50 83 0
38 80 192 41 83 195 0
38 80 212 41 83 215 0
38 93 122 41 96 125 0
38 93 192 41 96 195 0
38 122 212 41 125 215 0
38 138 192 41 141 195 0
38 138 212 41 141 215 0
47 80 233 50 83 236 0
47 80 255 50 83 258 0
47 107 173 50 110 176 0
47 107 255 50 110 258 0
47 155 233 50 158 236 0
47 155 255 50 158 258 0
47 173 233 50 176 236 0
57 80 212 60 83 215 0
57 80 233 60 83 236 0
57 93 107 60 96 110 0
57 93 122 60 96 125 0
57 93 233 60 96 236 0
57 107 173 60 110 176 0
57 107 212 60 110 215 0
57 122 212 60 125 215 0
57 173 233 60 176 236 0
68 80 192 71 83 195 0
68 80 255 71 83 258 0
68 93 107 71 96 110 0
68 93 155 71 96 158 0
68 93 192 71 96 195 0
68 107 138 71 110 141 0
68 107 255 71 110 258 0
68 138 192 71 141 195 0
68 155 255 71 158 258 0
80 192 233 83 195 236 0
80 212 255 83 215 258 0
93 122 155 96 125 158 0
93 155 233 96 158 236 0
93 192 233 96 195 236 0
107 138 173 110 141 176 0
107 138 212 110 141 215 0
107 212 255 110 215 258 0
122 155 255 125 158 258 0
122 212 255 125 215 258 0
138 173 192 141 176 195 0
173 192 233 176 195 236 0
30 38 47 34 42 51 0
30 38 122 34 42 126 0
30 38 138 34 42 142 0
30 47 155 34 51 159 0
30 47 173 34 51 177 0
30 57 122 34 61 126 0
30 57 173 34 61 177 0
30 68 138 34 72 142 0
30 68 155 34 72 159 0
30 122 155 34 126 159 0
30 138 173 34 142 177 0
38 47 80 42 51 84 0
38 80 192 42 84 196 0
38 80 212 42 84 216 0
38 93 122 42 97 126 0
38 93 192 42 97 196 0
38 122 212 42 126 216 0
38 138 192 42 142 196 0
38 138 212 42 142 216 0
47 80 233 51 84 237 0
47 80 255 51 84 259 0
47 107 173 51 111 177 0
47 107 255 51 111 259 0
47 155 233 51 159 237 0
47 155 255 51 159 259 0
47 173 233 51 177 237 0
57 80 212 61 84 216 0
57 80 233 61 84 237 0
57 93 107 61 97 111 0
57 93 122 61 97 126 0
57 93 233 61 97 237 0
57 107 173 61 111 177 0
57 107 212 61 111 216 0
57 122 212 61 126 216 0
57 173 233 61 177 237 0
68 80 192 72 84 196 0
68 80 255 72 84 259 0
68 93 107 72 97 111 0
68 93 155 72 97 159 0
68 93 192 72 97 196 0
68 107 138 72 111 142 0
68 107 255 72 111 259 0
68 138 192 72 142 196 0
68 155 255 72 159 259 0
80 192 233 84 196 237 0
80 212 255 84 216 259 0
93 122 155 97 126 159 0
93 155 233 97 159 237 0
93 192 233 97 196 237 0
107 138 173 111 142 177 0
107 138 212 111 142 216 0
107 212 255 111 216 259 0
122 155 255 126 159 259 0
122 212 255 126 216 259 0
138 173 192 142 177 196 0
173 192 233 177 196 237 0
30 38 47 35 43 52 0
30 38 122 35 43 127 0
30 38 138 35 43 143 0
30 47 155 35 52 160 0
30 47 173 35 52 178 0
30 57 122 35 62 127 0
30 57 173 35 62 178 0
30 68 138 35 73 143 0
30 68 155 35 73 160 0
30 122 155 35 127 160 0
30 138 173 35 143 178 0
38 47 80 43 52 85 0
38 80 192 43 85 197 0
38 80 212 43 85 217 0
38 93 122 43 98 127 0
38 93 192 43 98 197 0
38 122 212 43 127 217 0
38 138 192 43 143 197 0
38 138 212 43 143 217 0
47 80 233 52 85 238 0
47 80 255 52 85 260 0
47 107 173 52 112 178 0
47 107 255 52 112 260 0
47 155 233 52 160 238 0
47 155 255 52 160 260 0
47 173 233 52 178 238 0
57 80 212 62 85 217 0
57 80 233 62 85 238 0
57 93 107 62 98 112 0
57 93 122 62 98 127 0
57 93 233 62 98 238 0
57 107 173 62 112 178 0
57 107 212 62 112 217 0
57 122 212 62 127 217 0
57 173 233 62 178 238 0
68 80 192 73 85 197 0
68 80 255 73 85 260 0
68 93 107 73 98 112 0
68 93 155 73 98 160 0
68 93 192 73 98 197 0
68 107 138 73 112 143 0
68 107 255 73 112 260 0
68 138 192 73 143 197 0
68 155 255 73 160 260 0
80 192 233 85 197 238 0
80 212 255 85 217 260 0
93 122 155 98 127 160 0
93 155 233 98 160 238 0
93 192 233 98 197 238 0
107 138 173 112 143 178 0
107 138 212 112 143 217 0
107 212 255 112 217 260 0
122 155 255 127 160 260 0
122 212 255 127 217 260 0
138 173 192 143 178 197 0
173 192 233 178 197 238 0
9 24 31 10 32 33 36 0
9 24 39 10 40 41 44 0
9 24 48 10 49 50 53 0
9 24 58 10 59 60 63 0
9 24 69 10 70 71 74 0
9 24 81 10 82 83 86 0
9 24 94 10 95 96 99 0
9 24 108 10 109 110 113 0
9 24 123 10 124 125 128 0
9 24 139 10 140 141 144 0
9 24 156 10 157 158 161 0
9 24 174 10 175 176 179 0
9 24 193 10 194 195 198 0
9 24 213 10 214 215 218 0
9 24 234 10 235 236 239 0
9 24 256 10 257 258 261 0
9 31 39 10 32 40 33 41 0
9 31 48 10 32 49 33 50 0
9 31 58 10 32 59 33 60 0
9 31 69 10 32 70 33 71 0
9 31 123 10 32 124 33 125 0
9 31 139 10 32 140 33 141 0
9 31 156 10 32 157 33 158 0
9 31 174 10 32 175 33 176 0
9 39 48 10 40 49 41 50 0
9 39 81 10 40 82 41 83 0
9 39 94 10 40 95 41 96 0
9 39 123 10 40 124 41 125 0
9 39 139 10 40 140 41 141 0
9 39 193 10 40 194 41 195 0
9 39 213 10 40 214 41 215 0
9 48 81 10 49 82 50 83 0
9 48 108 10 49 109 50 110 0
9 48 156 10 49 157 50 158 0
9 48 174 10 49 175 50 176 0
9 48 234 10 49 235 50 236 0
9 48 256 10 49 257 50 258 0
9 58 81 10 59 82 60 83 0
9 58 94 10 59 95 60 96 0
9 58 108 10 59 109 60 110 0
9 58 123 10 59 124 60 125 0
9 58 174 10 59 175 60 176 0
9 58 213 10 59 214 60 215 0
9 58 234 10 59 235 60 236 0
9 69 81 10 70 82 71 83 0
9 69 94 10 70 95 71 96 0
9 69 108 10 70 109 71 110 0
9 69 139 10 70 140 71 141 0
9 69 156 10 70 157 71 158 0
9 69 193 10 70 194 71 195 0
9 69 256 10 70 257 71 258 0
9 81 193 10 82 194 83 195 0
9 81 213 10 82 214 83 215 0
9 81 234 10 82 235 83 236 0
9 81 256 10 82 257 83 258 0
9 94 108 10 95 109 96 110 0
9 94 123 10 95 124 96 125 0
9 94 156 10 95 157 96 158 0
9 94 193 10 95 194 96 195 0
9 94 234 10 95 235 96 236 0
9 108 139 10 109 140 110 141 0
9 108 174 10 109 175 110 176 0
9 108 213 10 109 214 110 215 0
9 108 256 10 109 257 110 258 0
9 123 156 10 124 157 125 158 0
9 123 213 10 124 214 125 215 0
9 123 256 10 124 257 125 258 0
9 139 174 10 140 175 141 176 0
9 139 193 10 140 194 141 195 0
9 139 213 10 140 214 141 215 0
9 156 234 10 157 235 158 236 0
9 156 256 10 157 257 158 258 0
9 174 193 10 175 194 176 195 0
9 174 234 10 175 235 176 236 0
9 193 234 10 194 235 195 236 0
9 213 256 10 214 257 215 258 0
31 39 32 40 34 42 0
31 48 32 49 34 51 0
31 58 32 59 34 61 0
31 69 32 70 34 72 0
31 123 32 124 34 126 0
31 139 32 140 34 142 0
31 156 32 157 34 159 0
31 174 32 175 34 177 0
39 48 40 49 42 51 0
39 81 40 82 42 84 0
39 94 40 95 42 97 0
39 123 40 124 42 126 0
39 139 40 140 42 142 0
39 193 40 194 42 196 0
39 213 40 214 42 216 0
48 81 49 82 51 84 0
48 108 49 109 51 111 0
48 156 49 157 51 159 0
48 174 49 175 51 177 0
48 234 49 235 51 237 0
48 256 49 257 51 259 0
58 81 59 82 61 84 0
58 94 59 95 61 97 0
58 108 59 109 61 111 0
58 123 59 124 61 126 0
58 174 59 175 61 177 0
58 213 59 214 61 216 0
58 234 59 235 61 237 0
69 81 70 82 72 84 0
69 94 70 95 72 97 0
69 108 70 109 72 111 0
69 139 70 140 72 142 0
69 156 70 157 72 159 0
69 193 70 194 72 196 0
69 256 70 257 72 259 0
81 193 82 194 84 196 0
81 213 82 214 84 216 0
81 234 82 235 84 237 0
81 256 82 257 84 259 0
94 108 95 109 97 111 0
94 123 95 124 97 126 0
94 156 95 157 97 159 0
94 193 95 194 97 196 0
94 234 95 235 97 237 0
108 139 109 140 111 142 0
108 174 109 175 111 177 0
108 213 109 214 111 216 0
108 256 109 257 111 259 0
123 156 124 157 126 159 0
123 213 124 214 126 216 0
123 256 124 257 126 259 0
139 174 140 175 142 177 0
139 193 140 194 142 196 0
139 213 140 214 142 216 0
156 234 157 235 159 237 0
156 256 157 257 159 259 0
174 193 175 194 177 196 0
174 234 175 235 177 237 0
193 234 194 235 196 237 0
213 256 214 257 216 259 0
24 31 39 32 40 36 44 0
24 31 48 32 49 36 53 0
24 31 58 32 59 36 63 0
24 31 69 32 70 36 74 0
24 31 123 32 124 36 128 0
24 31 139 32 140 36 144 0
24 31 156 32 157 36 161 0
24 31 174 32 175 36 179 0
24 39 48 40 49 44 53 0
24 39 81 40 82 44 86 0
24 39 94 40 95 44 99 0
24 39 123 40 124 44 128 0
24 39 139 40 140 44 144 0
24 39 193 40 194 44 198 0
24 39 213 40 214 44 218 0
24 48 81 49 82 53 86 0
24 48 108 49 109 53 113 0
24 48 156 49 157 53 161 0
24 48 174 49 175 53 179 0
24 48 234 49 235 53 239 0
24 48 256 49 257 53 261 0
24 58 81 59 82 63 86 0
24 58 94 59 95 63 99 0
24 58 108 59 109 63 113 0
24 58 123 59 124 63 128 0
24 58 174 59 175 63 179 0
24 58 213 59 214 63 218 0
24 58 234 59 235 63 239 0
24 69 81 70 82 74 86 0
24 69 94 70 95 74 99 0
24 69 108 70 109 74 113 0
24 69 139 70 140 74 144 0
24 69 156 70 157 74 161 0
24 69 193 70 194 74 198 0
24 69 256 70 257 74 261 0
24 81 193 82 194 86 198 0
24 81 213 82 214 86 218 0
24 81 234 82 235 86 239 0
24 81 256 82 257 86 261 0
24 94 108 95 109 99 113 0
24 94 123 95 124 99 128 0
24 94 156 95 157 99 161 0
24 94 193 95 194 99 198 0
24 94 234 95 235 99 239 0
24 108 139 109 140 113 144 0
24 108 174 109 175 113 179 0
24 108 213 109 214 113 218 0
24 108 256 109 257 113 261 0
24 123 156 124 157 128 161 0
24 123 213 124 214 128 218 0
24 123 256 124 257 128 261 0
24 139 174 140 175 144 179 0
24 139 193 140 194 144 198 0
24 139 213 140 214 144 218 0
24 156 234 157 235 161 239 0
24 156 256 157 257 161 261 0
24 174 193 175 194 179 198 0
24 174 234 175 235 179 239 0
24 193 234 194 235 198 239 0
24 213 256 214 257 218 261 0
31 39 48 32 40 49 0
31 39 123 32 40 124 0
31 39 139 32 40 140 0
31 48 156 32 49 157 0
31 48 174 32 49 175 0
31 58 123 32 59 124 0
31 58 174 32 59 175 0
31 69 139 32 70 140 0
31 69 156 32 70 157 0
31 123 156 32 124 157 0
31 139 174 32 140 175 0
39 48 81 40 49 82 0
39 81 193 40 82 194 0
39 81 213 40 82 214 0
39 94 123 40 95 124 0
39 94 193 40 95 194 0
39 123 213 40 124 214 0
39 139 193 40 140 194 0
39 139 213 40 140 214 0
48 81 234 49 82 235 0
48 81 256 49 82 257 0
48 108 174 49 109 175 0
48 108 256 49 109 257 0
48 156 234 49 157 235 0
48 156 256 49 157 257 0
48 174 234 49 175 235 0
58 81 213 59 82 214 0
58 81 234 59 82 235 0
58 94 108 59 95 109 0
58 94 123 59 95 124 0
58 94 234 59 95 235 0
58 108 174 59 109 175 0
58 108 213 59 109 214 0
58 123 213 59 124 214 0
58 174 234 59 175 235 0
69 81 193 70 82 194 0
69 81 256 70 82 257 0
69 94 108 70 95 109 0
69 94 156 70 95 157 0
69 94 193 70 95 194 0
69 108 139 70 109 140 0
69 108 256 70 109 257 0
69 139 193 70 140 194 0
69 156 256 70 157 257 0
81 193 234 82 194 235 0
81 213 256 82 214 257 0
94 123 156 95 124 157 0
94 156 234 95 157 235 0
94 193 234 95 194 235 0
108 139 174 109 140 175 0
108 139 213 109 140 214 0
108 213 256 109 214 257 0
123 156 256 124 157 257 0
123 213 256 124 214 257 0
139 174 193 140 175 194 0
174 193 234 175 194 235 0
9 24 31 39 33 41 36 44 0
9 24 31 48 33 50 36 53 0
9 24 31 58 33 60 36 63 0
9 24 31 69 33 71 36 74 0
9 24 31 123 33 125 36 128 0
9 24 31 139 33 141 36 144 0
9 24 31 156 33 158 36 161 0
9 24 31 174 33 176 36 179 0
9 24 39 48 41 50 44 53 0
9 24 39 81 41 83 44 86 0
9 24 39 94 41 96 44 99 0
9 24 39 123 41 125 44 128 0
9 24 39 139 41 141 44 144 0
9 24 39 193 41 195 44 198 0
9 24 39 213 41 215 44 218 0
9 24 48 81 50 83 53 86 0
9 24 48 108 50 110 53 113 0
9 24 48 156 50 158 53 161 0
9 24 48 174 50 176 53 179 0
9 24 48 234 50 236 53 239 0
9 24 48 256 50 258 53 261 0
9 24 58 81 60 83 63 86 0
9 24 58 94 60 96 63 99 0
9 24 58 108 60 110 63 113 0
9 24 58 123 60 125 63 128 0
9 24 58 174 60 176 63 179 0
9 24 58 213 60 215 63 218 0
9 24 58 234 60 236 63 239 0
9 24 69 81 71 83 74 86 0
9 24 69 94 71 96 74 99 0
9 24 69 108 71 110 74 113 0
9 24 69 139 71 141 74 144 0
9 24 69 156 71 158 74 161 0
9 24 69 193 71 195 74 198 0
9 24 69 256 71 258 74 261 0
9 24 81 193 83 195 86 198 0
9 24 81 213 83 215 86 218 0
9 24 81 234 83 236 86 239 0
9 24 81 256 83 258 86 261 0
9 24 94 108 96 110 99 113 0
9 24 94 123 96 125 99 128 0
9 24 94 156 96 158 99 161 0
9 24 94 193 96 195 99 198 0
9 24 94 234 96 236 99 239 0
9 24 108 139 110 141 113 144 0
9 24 108 174 110 176 113 179 0
9 24 108 213 110 215 113 218 0
9 24 108 256 110 258 113 261 0
9 24 123 156 125 158 128 161 0
9 24 123 213 125 215 128 218 0
9 24 123 256 125 258 128 261 0
9 24 139 174 141 176 144 179 0
9 24 139 193 141 195 144 198 0
9 24 139 213 141 215 144 218 0
9 24 156 234 158 236 161 239 0
9 24 156 256 158 258 161 261 0
9 24 174 193 176 195 179 198 0
9 24 174 234 176 236 179 239 0
9 24 193 234 195 236 198 239 0
9 24 213 256 215 258 218 261 0
9 31 39 48 33 41 50 0
9 31 39 123 33 41 125 0
9 31 39 139 33 41 141 0
9 31 48 156 33 50 158 0
9 31 48 174 33 50 176 0
9 31 58 123 33 60 125 0
9 31 58 174 33 60 176 0
9 31 69 139 33 71 141 0
9 31 69 156 33 71 158 0
9 31 123 156 33 125 158 0
9 31 139 174 33 141 176 0
9 39 48 81 41 50 83 0
9 39 81 193 41 83 195 0
9 39 81 213 41 83 215 0
9 39 94 123 41 96 125 0
9 39 94 193 41 96 195 0
9 39 123 213 41 125 215 0
9 39 139 193 41 141 195 0
9 39 139 213 41 141 215 0
9 48 81 234 50 83 236 0
9 48 81 256 50 83 258 0
9 48 108 174 50 110 176 0
9 48 108 256 50 110 258 0
9 48 156 234 50 158 236 0
9 48 156 256 50 158 258 0
9 48 174 234 50 176 236 0
9 58 81 213 60 83 215 0
9 58 81 234 60 83 236 0
9 58 94 108 60 96 110 0
9 58 94 123 60 96 125 0
9 58 94 234 60 96 236 0
9 58 108 174 60 110 176 0
9 58 108 213 60 110 215 0
9 58 123 213 60 125 215 0
9 58 174 234 60 176 236 0
9 69 81 193 71 83 195 0
9 69 81 256 71 83 258 0
9 69 94 108 71 96 110 0
9 69 94 156 71 96 158 0
9 69 94 193 71 96 195 0
9 69 108 139 71 110 141 0
9 69 108 256 71 110 258 0
9 69 139 193 71 141 195 0
9 69 156 256 71 158 258 0
9 81 193 234 83 195 236 0
9 81 213 256 83 215 258 0
9 94 123 156 96 125 158 0
9 94 156 234 96 158 236 0
9 94 193 234 96 195 236 0
9 108 139 174 110 141 176 0
9 108 139 213 110 141 215 0
9 108 213 256 110 215 258 0
9 123 156 256 125 158 258 0
9 123 213 256 125 215 258 0
9 139 174 193 141 176 195 0
9 174 193 234 176 195 236 0
31 39 48 34 42 51 0
31 39 123 34 42 126 0
31 39 139 34 42 142 0
31 48 156 34 51 159 0
31 48 174 34 51 177 0
31 58 123 34 61 126 0
31 58 174 34 61 177 0
31 69 139 34 72 142 0
31 69 156 34 72 159 0
31 123 156 34 126 159 0
31 139 174 34 142 177 0
39 48 81 42 51 84 0
39 81 193 42 84 196 0
39 81 213 42 84 216 0
39 94 123 42 97 126 0
39 94 193 42 97 196 0
39 123 213 42 126 216 0
39 139 193 42 142 196 0
39 139 213 42 142 216 0
48 81 234 51 84 237 0
48 81 256 51 84 259 0
48 108 174 51 111 177 0
48 108 256 51 111 259 0
48 156 234 51 159 237 0
48 156 256 51 159 259 0
48 174 234 51 177 237 0
58 81 213 61 84 216 0
58 81 234 61 84 237 0
58 94 108 61 97 111 0
58 94 123 61 97 126 0
58 94 234 61 97 237 0
58 108 174 61 111 177 0
58 108 213 61 111 216 0
58 123 213 61 126 216 0
58 174 234 61 177 237 0
69 81 193 72 84 196 0
69 81 256 72 84 259 0
69 94 108 72 97 111 0
69 94 156 72 97 159 0
69 94 193 72 97 196 0
69 108 139 72 111 142 0
69 108 256 72 111 259 0
69 139 193 72 142 196 0
69 156 256 72 159 259 0
81 193 234 84 196 237 0
81 213 256 84 216 259 0
94 123 156 97 126 159 0
94 156 234 97 159 237 0
94 193 234 97 196 237 0
108 139 174 111 142 177 0
108 139 213 111 142 216 0
108 213 256 111 216 259 0
123 156 256 126 159 259 0
123 213 256 126 216 259 0
139 174 193 142 177 196 0
174 193 234 177 196 237 0
24 31 39 48 36 44 53 0
24 31 39 123 36 44 128 0
24 31 39 139 36 44 144 0
24 31 48 156 36 53 161 0
24 31 48 174 36 53 179 0
24 31 58 123 36 63 128 0
24 31 58 174 36 63 179 0
24 31 69 139 36 74 144 0
24 31 69 156 36 74 161 0
24 31 123 156 36 128 161 0
24 31 139 174 36 144 179 0
24 39 48 81 44 53 86 0
24 39 81 193 44 86 198 0
24 39 81 213 44 86 218 0
24 39 94 123 44 99 128 0
24 39 94 193 44 99 198 0
24 39 123 213 44 128 218 0
24 39 139 193 44 144 198 0
24 39 139 213 44 144 218 0
24 48 81 234 53 86 239 0
24 48 81 256 53 86 261 0
24 48 108 174 53 113 179 0
24 48 108 256 53 113 261 0
24 48 156 234 53 161 239 0
24 48 156 256 53 161 261 0
24 48 174 234 53 179 239 0
24 58 81 213 63 86 218 0
24 58 81 234 63 86 239 0
24 58 94 108 63 99 113 0
24 58 94 123 63 99 128 0
24 58 94 234 63 99 239 0
24 58 108 174 63 113 179 0
24 58 108 213 63 113 218 0
24 58 123 213 63 128 218 0
24 58 174 234 63 179 239 0
24 69 81 193 74 86 198 0
24 69 81 256 74 86 261 0
24 69 94 108 74 99 113 0
24 69 94 156 74 99 161 0
24 69 94 193 74 99 198 0
24 69 108 139 74 113 144 0
24 69 108 256 74 113 261 0
24 69 139 193 74 144 198 0
24 69 156 256 74 161 261 0
24 81 193 234 86 198 239 0
24 81 213 256 86 218 261 0
24 94 123 156 99 128 161 0
24 94 156 234 99 161 239 0
24 94 193 234 99 198 239 0
24 108 139 174 113 144 179 0
24 108 139 213 113 144 218 0
24 108 213 256 113 218 261 0
24 123 156 256 128 161 261 0
24 123 213 256 128 218 261 0
24 139 174 193 144 179 198 0
24 174 193 234 179 198 239 0
10 19 32 33 35 36 0
10 19 40 41 43 44 0
10 19 49 50 52 53 0
10 19 59 60 62 63 0
10 19 70 71 73 74 0
10 19 82 83 85 86 0
10 19 95 96 98 99 0
10 19 109 110 112 113 0
10 19 124 125 127 128 0
10 19 140 141 143 144 0
10 19 157 158 160 161 0
10 19 175 176 178 179 0
10 19 194 195 197 198 0
10 19 214 215 217 218 0
10 19 235 236 238 239 0
10 19 257 258 260 261 0
10 19 32 40 33 41 35 43 0
10 19 32 49 33 50 35 52 0
10 19 32 59 33 60 35 62 0
10 19 32 70 33 71 35 73 0
10 19 32 124 33 125 35 127 0
10 19 32 140 33 141 35 143 0
10 19 32 157 33 158 35 160 0
10 19 32 175 33 176 35 178 0
10 19 40 49 41 50 43 52 0
10 19 40 82 41 83 43 85 0
10 19 40 95 41 96 43 98 0
10 19 40 124 41 125 43 127 0
10 19 40 140 41 141 43 143 0
10 19 40 194 41 195 43 197 0
10 19 40 214 41 215 43 217 0
10 19 49 82 50 83 52 85 0
10 19 49 109 50 110 52 112 0
10 19 49 157 50 158 52 160 0
10 19 49 175 50 176 52 178 0
10 19 49 235 50 236 52 238 0
10 19 49 257 50 258 52 260 0
10 19 59 82 60 83 62 85 0
10 19 59 95 60 96 62 98 0
10 19 59 109 60 110 62 112 0
10 19 59 124 60 125 62 127 0
10 19 59 175 60 176 62 178 0
10 19 59 214 60 215 62 217 0
10 19 59 235 60 236 62 238 0
10 19 70 82 71 83 73 85 0
10 19 70 95 71 96 73 98 0
10 19 70 109 71 110 73 112 0
10 19 70 140 71 141 73 143 0
10 19 70 157 71 158 73 160 0
10 19 70 194 71 195 73 197 0
10 19 70 257 71 258 73 260 0
10 19 82 194 83 195 85 197 0
10 19 82 214 83 215 85 217 0
10 19 82 235 83 236 85 238 0
10 19 82 257 83 258 85 260 0
10 19 95 109 96 110 98 112 0
10 19 95 124 96 125 98 127 0
10 19 95 157 96 158 98 160 0
10 19 95 194 96 195 98 197 0
10 19 95 235 96 236 98 238 0
10 19 109 140 110 141 112 143 0
10 19 109 175 110 176 112 178 0
10 19 109 214 110 215 112 217 0
10 19 109 257 110 258 112 260 0
10 19 124 157 125 158 127 160 0
10 19 124 214 125 215 127 217 0
10 19 124 257 125 258 127 260 0
10 19 140 175 141 176 143 178 0
10 19 140 194 141 195 143 197 0
10 19 140 214 141 215 143 217 0
10 19 157 235 158 236 160 238 0
10 19 157 257 158 258 160 260 0
10 19 175 194 176 195 178 197 0
10 19 175 235 176 236 178 238 0
10 19 194 235 195 236 197 238 0
10 19 214 257 215 258 217 260 0
10 32 40 33 41 36 44 0
10 32 49 33 50 36 53 0
10 32 59 33 60 36 63 0
10 32 70 33 71 36 74 0
10 32 124 33 125 36 128 0
10 32 140 33 141 36 144 0
10 32 157 33 158 36 161 0
10 32 175 33 176 36 179 0
10 40 49 41 50 44 53 0
10 40 82 41 83 44 86 0
10 40 95 41 96 44 99 0
10 40 124 41 125 44 128 0
10 40 140 41 141 44 144 0
10 40 194 41 195 44 198 0
10 40 214 41 215 44 218 0
10 49 82 50 83 53 86 0
10 49 109 50 110 53 113 0
10 49 157 50 158 53 161 0
10 49 175 50 176 53 179 0
10 49 235 50 236 53 239 0
10 49 257 50 258 53 261 0
10 59 82 60 83 63 86 0
10 59 95 60 96 63 99 0
10 59 109 60 110 63 113 0
10 59 124 60 125 63 128 0
10 59 175 60 176 63 179 0
10 59 214 60 215 63 218 0
10 59 235 60 236 63 239 0
10 70 82 71 83 74 86 0
10 70 95 71 96 74 99 0
10 70 109 71 110 74 113 0
10 70 140 71 141 74 144 0
10 70 157 71 158 74 161 0
10 70 194 71 195 74 198 0
10 70 257 71 258 74 261 0
10 82 194 83 195 86 198 0
10 82 214 83 215 86 218 0
10 82 235 83 236 86 239 0
10 82 257 83 258 86 261 0
10 95 109 96 110 99 113 0
10 95 124 96 125 99 128 0
10 95 157 96 158 99 161 0
10 95 194 96 195 99 198 0
10 95 235 96 236 99 239 0
10 109 140 110 141 113 144 0
10 109 175 110 176 113 179 0
10 109 214 110 215 113 218 0
10 109 257 110 258 113 261 0
10 124 157 125 158 128 161 0
10 124 214 125 215 128 218 0
10 124 257 125 258 128 261 0
10 140 175 141 176 144 179 0
10 140 194 141 195 144 198 0
10 140 214 141 215 144 218 0
10 157 235 158 236 161 239 0
10 157 257 158 258 161 261 0
10 175 194 176 195 179 198 0
10 175 235 176 236 179 239 0
10 194 235 195 236 198 239 0
10 214 257 215 258 218 261 0
10 32 40 49 33 41 50 0
10 32 40 124 33 41 125 0
10 32 40 140 33 41 141 0
10 32 49 157 33 50 158 0
10 32 49 175 33 50 176 0
10 32 59 124 33 60 125 0
10 32 59 175 33 60 176 0
10 32 70 140 33 71 141 0
10 32 70 157 33 71 158 0
10 32 124 157 33 125 158 0
10 32 140 175 33 141 176 0
10 40 49 82 41 50 83 0
10 40 82 194 41 83 195 0
10 40 82 214 41 83 215 0
10 40 95 124 41 96 125 0
10 40 95 194 41 96 195 0
10 40 124 214 41 125 215 0
10 40 140 194 41 141 195 0
10 40 140 214 41 141 215 0
10 49 82 235 50 83 236 0
10 49 82 257 50 83 258 0
10 49 109 175 50 110 176 0
10 49 109 257 50 110 258 0
10 49 157 235 50 158 236 0
10 49 157 257 50 158 258 0
10 49 175 235 50 176 236 0
10 59 82 214 60 83 215 0
10 59 82 235 60 83 236 0
10 59 95 109 60 96 110 0
10 59 95 124 60 96 125 0
10 59 95 235 60 96 236 0
10 59 109 175 60 110 176 0
10 59 109 214 60 110 215 0
10 59 124 214 60 125 215 0
10 59 175 235 60 176 236 0
10 70 82 194 71 83 195 0
10 70 82 257 71 83 258 0
10 70 95 109 71 96 110 0
10 70 95 157 71 96 158 0
10 70 95 194 71 96 195 0
10 70 109 140 71 110 141 0
10 70 109 257 71 110 258 0
10 70 140 194 71 141 195 0
10 70 157 257 71 158 258 0
10 82 194 235 83 195 236 0
10 82 214 257 83 215 258 0
10 95 124 157 96 125 158 0
10 95 157 235 96 158 236 0
10 95 194 235 96 195 236 0
10 109 140 175 110 141 176 0
10 109 140 214 110 141 215 0
10 109 214 257 110 215 258 0
10 124 157 257 125 158 258 0
10 124 214 257 125 215 258 0
10 140 175 194 141 176 195 0
10 175 194 235 176 195 236 0
32 40 49 34 42 51 0
32 40 124 34 42 126 0
32 40 140 34 42 142 0
32 49 157 34 51 159 0
32 49 175 34 51 177 0
32 59 124 34 61 126 0
32 59 175 34 61 177 0
32 70 140 34 72 142 0
32 70 157 34 72 159 0
32 124 157 34 126 159 0
32 140 175 34 142 177 0
40 49 82 42 51 84 0
40 82 194 42 84 196 0
40 82 214 42 84 216 0
40 95 124 42 97 126 0
40 95 194 42 97 196 0
40 124 214 42 126 216 0
40 140 194 42 142 196 0
40 140 214 42 142 216 0
49 82 235 51 84 237 0
49 82 257 51 84 259 0
49 109 175 51 111 177 0
49 109 257 51 111 259 0
49 157 235 51 159 237 0
49 157 257 51 159 259 0
49 175 235 51 177 237 0
59 82 214 61 84 216 0
59 82 235 61 84 237 0
59 95 109 61 97 111 0
59 95 124 61 97 126 0
59 95 235 61 97 237 0
59 109 175 61 111 177 0
59 109 214 61 111 216 0
59 124 214 61 126 216 0
59 175 235 61 177 237 0
70 82 194 72 84 196 0
70 82 257 72 84 259 0
70 95 109 72 97 111 0
70 95 157 72 97 159 0
70 95 194 72 97 196 0
70 109 140 72 111 142 0
70 109 257 72 111 259 0
70 140 194 72 142 196 0
70 157 257 72 159 259 0
82 194 235 84 196 237 0
82 214 257 84 216 259 0
95 124 157 97 126 159 0
95 157 235 97 159 237 0
95 194 235 97 196 237 0
109 140 175 111 142 177 0
109 140 214 111 142 216 0
109 214 257 111 216 259 0
124 157 257 126 159 259 0
124 214 257 126 216 259 0
140 175 194 142 177 196 0
175 194 235 177 196 237 0
19 32 40 35 43 36 44 0
19 32 49 35 52 36 53 0
19 32 59 35 62 36 63 0
19 32 70 35 73 36 74 0
19 32 124 35 127 36 128 0
19 32 140 35 143 36 144 0
19 32 157 35 160 36 161 0
19 32 175 35 178 36 179 0
19 40 49 43 52 44 53 0
19 40 82 43 85 44 86 0
19 40 95 43 98 44 99 0
19 40 124 43 127 44 128 0
19 40 140 43 143 44 144 0
19 40 194 43 197 44 198 0
19 40 214 43 217 44 218 0
19 49 82 52 85 53 86 0
19 49 109 52 112 53 113 0
19 49 157 52 160 53 161 0
19 49 175 52 178 53 179 0
19 49 235 52 238 53 239 0
19 49 257 52 260 53 261 0
19 59 82 62 85 63 86 0
19 59 95 62 98 63 99 0
19 59 109 62 112 63 113 0
19 59 124 62 127 63 128 0
19 59 175 62 178 63 179 0
19 59 214 62 217 63 218 0
19 59 235 62 238 63 239 0
19 70 82 73 85 74 86 0
19 70 95 73 98 74 99 0
19 70 109 73 112 74 113 0
19 70 140 73 143 74 144 0
19 70 157 73 160 74 161 0
19 70 194 73 197 74 198 0
19 70 257 73 260 74 261 0
19 82 194 85 197 86 198 0
19 82 214 85 217 86 218 0
19 82 235 85 238 86 239 0
19 82 257 85 260 86 261 0
19 95 109 98 112 99 113 0
19 95 124 98 127 99 128 0
19 95 157 98 160 99 161 0
19 95 194 98 197 99 198 0
19 95 235 98 238 99 239 0
19 109 140 112 143 113 144 0
19 109 175 112 178 113 179 0
19 109 214 112 217 113 218 0
19 109 257 112 260 113 261 0
19 124 157 127 160 128 161 0
19 124 214 127 217 128 218 0
19 124 257 127 260 128 261 0
19 140 175 143 178 144 179 0
19 140 194 143 197 144 198 0
19 140 214 143 217 144 218 0
19 157 235 160 238 161 239 0
19 157 257 160 260 161 261 0
19 175 194 178 197 179 198 0
19 175 235 178 238 179 239 0
19 194 235 197 238 198 239 0
19 214 257 217 260 218 261 0
19 32 40 49 35 43 52 0
19 32 40 124 35 43 127 0
19 32 40 140 35 43 143 0
19 32 49 157 35 52 160 0
19 32 49 175 35 52 178 0
19 32 59 124 35 62 127 0
19 32 59 175 35 62 178 0
19 32 70 140 35 73 143 0
19 32 70 157 35 73 160 0
19 32 124 157 35 127 160 0
19 32 140 175 35 143 178 0
19 40 49 82 43 52 85 0
19 40 82 194 43 85 197 0
19 40 82 214 43 85 217 0
19 40 95 124 43 98 127 0
19 40 95 194 43 98 197 0
19 40 124 214 43 127 217 0
19 40 140 194 43 143 197 0
19 40 140 214 43 143 217 0
19 49 82 235 52 85 238 0
19 49 82 257 52 85 260 0
19 49 109 175 52 112 178 0
19 49 109 257 52 112 260 0
19 49 157 235 52 160 238 0
19 49 157 257 52 160 260 0
19 49 175 235 52 178 238 0
19 59 82 214 62 85 217 0
19 59 82 235 62 85 238 0
19 59 95 109 62 98 112 0
19 59 95 124 62 98 127 0
19 59 95 235 62 98 238 0
19 59 109 175 62 112 178 0
19 59 109 214 62 112 217 0
19 59 124 214 62 127 217 0
19 59 175 235 62 178 238 0
19 70 82 194 73 85 197 0
19 70 82 257 73 85 260 0
19 70 95 109 73 98 112 0
19 70 95 157 73 98 160 0
19 70 95 194 73 98 197 0
19 70 109 140 73 112 143 0
19 70 109 257 73 112 260 0
19 70 140 194 73 143 197 0
19 70 157 257 73 160 260 0
19 82 194 235 85 197 238 0
19 82 214 257 85 217 260 0
19 95 124 157 98 127 160 0
19 95 157 235 98 160 238 0
19 95 194 235 98 197 238 0
19 109 140 175 112 143 178 0
19 109 140 214 112 143 217 0
19 109 214 257 112 217 260 0
19 124 157 257 127 160 260 0
19 124 214 257 127 217 260 0
19 140 175 194 143 178 197 0
19 175 194 235 178 197 238 0
32 40 49 36 44 53 0
32 40 124 36 44 128 0
32 40 140 36 44 144 0
32 49 157 36 53 161 0
32 49 175 36 53 179 0
32 59 124 36 63 128 0
32 59 175 36 63 179 0
32 70 140 36 74 144 0
32 70 157 36 74 161 0
32 124 157 36 128 161 0
32 140 175 36 144 179 0
40 49 82 44 53 86 0
40 82 194 44 86 198 0
40 82 214 44 86 218 0
40 95 124 44 99 128 0
40 95 194 44 99 198 0
40 124 214 44 128 218 0
40 140 194 44 144 198 0
40 140 214 44 144 218 0
49 82 235 53 86 239 0
49 82 257 53 86 261 0
49 109 175 53 113 179 0
49 109 257 53 113 261 0
49 157 235 53 161 239 0
49 157 257 53 161 261 0
49 175 235 53 179 239 0
59 82 214 63 86 218 0
59 82 235 63 86 239 0
59 95 109 63 99 113 0
59 95 124 63 99 128 0
59 95 235 63 99 239 0
59 109 175 63 113 179 0
59 109 214 63 113 218 0
59 124 214 63 128 218 0
59 175 235 63 179 239 0
70 82 194 74 86 198 0
70 82 257 74 86 261 0
70 95 109 74 99 113 0
70 95 157 74 99 161 0
70 95 194 74 99 198 0
70 109 140 74 113 144 0
70 109 257 74 113 261 0
70 140 194 74 144 198 0
70 157 257 74 161 261 0
82 194 235 86 198 239 0
82 214 257 86 218 261 0
95 124 157 99 128 161 0
95 157 235 99 161 239 0
95 194 235 99 198 239 0
109 140 175 113 144 179 0
109 140 214 113 144 218 0
109 214 257 113 218 261 0
124 157 257 128 161 261 0
124 214 257 128 218 261 0
140 175 194 144 179 198 0
175 194 235 179 198 239 0
33 41 35 43 36 44 0
33 50 35 52 36 53 0
33 60 35 62 36 63 0
33 71 35 73 36 74 0
33 125 35 127 36 128 0
33 141 35 143 36 144 0
33 158 35 160 36 161 0
33 176 35 178 36 179 0
41 50 43 52 44 53 0
41 83 43 85 44 86 0
41 96 43 98 44 99 0
41 125 43 127 44 128 0
41 141 43 143 44 144 0
41 195 43 197 44 198 0
41 215 43 217 44 218 0
50 83 52 85 53 86 0
50 110 52 112 53 113 0
50 158 52 160 53 161 0
50 176 52 178 53 179 0
50 236 52 238 53 239 0
50 258 52 260 53 261 0
60 83 62 85 63 86 0
60 96 62 98 63 99 0
60 110 62 112 63 113 0
60 125 62 127 63 128 0
60 176 62 178 63 179 0
60 215 62 217 63 218 0
60 236 62 238 63 239 0
71 83 73 85 74 86 0
71 96 73 98 74 99 0
71 110 73 112 74 113 0
71 141 73 143 74 144 0
71 158 73 160 74 161 0
71 195 73 197 74 198 0
71 258 73 260 74 261 0
83 195 85 197 86 198 0
83 215 85 217 86 218 0
83 236 85 238 86 239 0
83 258 85 260 86 261 0
96 110 98 112 99 113 0
96 125 98 127 99 128 0
96 158 98 160 99 161 0
96 195 98 197 99 198 0
96 236 98 238 99 239 0
110 141 112 143 113 144 0
110 176 112 178 113 179 0
110 215 112 217 113 218 0
110 258 112 260 113 261 0
125 158 127 160 128 161 0
125 215 127 217 128 218 0
125 258 127 260 128 261 0
141 176 143 178 144 179 0
141 195 143 197 144 198 0
141 215 143 217 144 218 0
158 236 160 238 161 239 0
158 258 160 260 161 261 0
176 195 178 197 179 198 0
176 236 178 238 179 239 0
195 236 197 238 198 239 0
215 258 217 260 218 261 0
33 41 50 35 43 52 0
33 41 125 35 43 127 0
33 41 141 35 43 143 0
33 50 158 35 52 160 0
33 50 176 35 52 178 0
33 60 125 35 62 127 0
33 60 176 35 62 178 0
33 71 141 35 73 143 0
33 71 158 35 73 160 0
33 125 158 35 127 160 0
33 141 176 35 143 178 0
41 50 83 43 52 85 0
41 83 195 43 85 197 0
41 83 215 43 85 217 0
41 96 125 43 98 127 0
41 96 195 43 98 197 0
41 125 215 43 127 217 0
41 141 195 43 143 197 0
41 141 215 43 143 217 0
50 83 236 52 85 238 0
50 83 258 52 85 260 0
50 110 176 52 112 178 0
50 110 258 52 112 260 0
50 158 236 52 160 238 0
50 158 258 52 160 260 0
50 176 236 52 178 238 0
60 83 215 62 85 217 0
60 83 236 62 85 238 0
60 96 110 62 98 112 0
60 96 125 62 98 127 0
60 96 236 62 98 238 0
60 110 176 62 112 178 0
60 110 215 62 112 217 0
60 125 215 62 127 217 0
60 176 236 62 178 238 0
71 83 195 73 85 197 0
71 83 258 73 85 260 0
71 96 110 73 98 112 0
71 96 158 73 98 160 0
71 96 195 73 98 197 0
71 110 141 73 112 143 0
71 110 258 73 112 260 0
71 141 195 73 143 197 0
71 158 258 73 160 260 0
83 195 236 85 197 238 0
83 215 258 85 217 260 0
96 125 158 98 127 160 0
96 158 236 98 160 238 0
96 195 236 98 197 238 0
110 141 176 112 143 178 0
110 141 215 112 143 217 0
110 215 258 112 217 260 0
125 158 258 127 160 260 0
125 215 258 127 217 260 0
141 176 195 143 178 197 0
176 195 236 178 197 238 0
33 41 50 36 44 53 0
33 41 125 36 44 128 0
33 41 141 36 44 144 0
33 50 158 36 53 161 0
33 50 176 36 53 179 0
33 60 125 36 63 128 0
33 60 176 36 63 179 0
33 71 141 36 74 144 0
33 71 158 36 74 161 0
33 125 158 36 128 161 0
33 141 176 36 144 179 0
41 50 83 44 53 86 0
41 83 195 44 86 198 0
41 83 215 44 86 218 0
41 96 125 44 99 128 0
41 96 195 44 99 198 0
41 125 215 44 128 218 0
41 141 195 44 144 198 0
41 141 215 44 144 218 0
50 83 236 53 86 239 0
50 83 258 53 86 261 0
50 110 176 53 113 179 0
50 110 258 53 113 261 0
50 158 236 53 161 239 0
50 158 258 53 161 261 0
50 176 236 53 179 239 0
60 83 215 63 86 218 0
60 83 236 63 86 239 0
60 96 110 63 99 113 0
60 96 125 63 99 128 0
60 96 236 63 99 239 0
60 110 176 63 113 179 0
60 110 215 63 113 218 0
60 125 215 63 128 218 0
60 176 236 63 179 239 0
71 83 195 74 86 198 0
71 83 258 74 86 261 0
71 96 110 74 99 113 0
71 96 158 74 99 161 0
71 96 195 74 99 198 0
71 110 141 74 113 144 0
71 110 258 74 113 261 0
71 141 195 74 144 198 0
71 158 258 74 161 261 0
83 195 236 86 198 239 0
83 215 258 86 218 261 0
96 125 158 99 128 161 0
96 158 236 99 161 239 0
96 195 236 99 198 239 0
110 141 176 113 144 179 0
110 141 215 113 144 218 0
110 215 258 113 218 261 0
125 158 258 128 161 261 0
125 215 258 128 218 261 0
141 176 195 144 179 198 0
176 195 236 179 198 239 0
35 43 52 36 44 53 0
35 43 127 36 44 128 0
35 43 143 36 44 144 0
35 52 160 36 53 161 0
35 52 178 36 53 179 0
35 62 127 36 63 128 0
35 62 178 36 63 179 0
35 73 143 36 74 144 0
35 73 160 36 74 161 0
35 127 160 36 128 161 0
35 143 178 36 144 179 0
43 52 85 44 53 86 0
43 85 197 44 86 198 0
43 85 217 44 86 218 0
43 98 127 44 99 128 0
43 98 197 44 99 198 0
43 127 217 44 128 218 0
43 143 197 44 144 198 0
43 143 217 44 144 218 0
52 85 238 53 86 239 0
52 85 260 53 86 261 0
52 112 178 53 113 179 0
52 112 260 53 113 261 0
52 160 238 53 161 239 0
52 160 260 53 161 261 0
52 178 238 53 179 239 0
62 85 217 63 86 218 0
62 85 238 63 86 239 0
62 98 112 63 99 113 0
62 98 127 63 99 128 0
62 98 238 63 99 239 0
62 112 178 63 113 179 0
62 112 217 63 113 218 0
62 127 217 63 128 218 0
62 178 238 63 179 239 0
73 85 197 74 86 198 0
73 85 260 74 86 261 0
73 98 112 74 99 113 0
73 98 160 74 99 161 0
73 98 197 74 99 198 0
73 112 143 74 113 144 0
73 112 260 74 113 261 0
73 143 197 74 144 198 0
73 160 260 74 161 261 0
85 197 238 86 198 239 0
85 217 260 86 218 261 0
98 127 160 99 128 161 0
98 160 238 99 161 239 0
98 197 238 99 198 239 0
112 143 178 113 144 179 0
112 143 217 113 144 218 0
112 217 260 113 218 261 0
127 160 260 128 161 261 0
127 217 260 128 218 261 0
143 178 197 144 179 198 0
178 197 238 179 198 239 0
