p cnf 276 3448
-1 -29 -79 -30 -80 0
-1 -29 -92 -30 -93 0
-1 -29 -106 -30 -107 0
-1 -29 -191 -30 -192 0
-1 -29 -211 -30 -212 0
-1 -29 -232 -30 -233 0
-1 -29 -254 -30 -255 0
-1 -37 -56 -38 -57 0
-1 -37 -67 -38 -68 0
-1 -37 -106 -38 -107 0
-1 -37 -154 -38 -155 0
-1 -37 -172 -38 -173 0
-1 -37 -232 -38 -233 0
-1 -37 -254 -38 -255 0
-1 -46 -56 -47 -57 0
-1 -46 -67 -47 -68 0
-1 -46 -92 -47 -93 0
-1 -46 -121 -47 -122 0
-1 -46 -137 -47 -138 0
-1 -46 -191 -47 -192 0
-1 -46 -211 -47 -212 0
-1 -56 -67 -57 -68 0
-1 -56 -137 -57 -138 0
-1 -56 -154 -57 -155 0
-1 -56 -191 -57 -192 0
-1 -56 -254 -57 -255 0
-1 -67 -121 -68 -122 0
-1 -67 -172 -68 -173 0
-1 -67 -211 -68 -212 0
-1 -67 -232 -68 -233 0
-1 -79 -92 -80 -93 0
-1 -79 -106 -80 -107 0
-1 -79 -121 -80 -122 0
-1 -79 -137 -80 -138 0
-1 -79 -154 -80 -155 0
-1 -79 -172 -80 -173 0
-1 -92 -137 -93 -138 0
-1 -92 -172 -93 -173 0
-1 -92 -211 -93 -212 0
-1 -92 -254 -93 -255 0
-1 -106 -121 -107 -122 0
-1 -106 -154 -107 -155 0
-1 -106 -191 -107 -192 0
-1 -106 -232 -107 -233 0
-1 -121 -137 -122 -138 0
-1 -121 -172 -122 -173 0
-1 -121 -191 -122 -192 0
-1 -121 -232 -122 -233 0
-1 -137 -154 -138 -155 0
-1 -137 -232 -138 -233 0
-1 -137 -254 -138 -255 0
-1 -154 -172 -155 -173 0
-1 -154 -191 -155 -192 0
-1 -154 -211 -155 -212 0
-1 -172 -211 -173 -212 0
-1 -172 -254 -173 -255 0
-1 -191 -211 -192 -212 0
-1 -191 -254 -192 -255 0
-1 -211 -232 -212 -233 0
-1 -232 -254 -233 -255 0
-29 -79 -31 -81 0
-29 -92 -31 -94 0
-29 -106 -31 -108 0
-29 -191 -31 -193 0
-29 -211 -31 -213 0
-29 -232 -31 -234 0
-29 -254 -31 -256 0
-37 -56 -39 -58 0
-37 -67 -39 -69 0
-37 -106 -39 -108 0
-37 -154 -39 -156 0
-37 -172 -39 -174 0
-37 -232 -39 -234 0
-37 -254 -39 -256 0
-46 -56 -48 -58 0
-46 -67 -48 -69 0
-46 -92 -48 -94 0
-46 -121 -48 -123 0
-46 -137 -48 -139 0
-46 -191 -48 -193 0
-46 -211 -48 -213 0
-56 -67 -58 -69 0
-56 -137 -58 -139 0
-56 -154 -58 -156 0
-56 -191 -58 -193 0
-56 -254 -58 -256 0
-67 -121 -69 -123 0
-67 -172 -69 -174 0
-67 -211 -69 -213 0
-67 -232 -69 -234 0
-79 -92 -81 -94 0
-79 -106 -81 -108 0
-79 -121 -81 -123 0
-79 -137 -81 -139 0
-79 -154 -81 -156 0
-79 -172 -81 -174 0
-92 -137 -94 -139 0
-92 -172 -94 -174 0
-92 -211 -94 -213 0
-92 -254 -94 -256 0
-106 -121 -108 -123 0
-106 -154 -108 -156 0
-106 -191 -108 -193 0
-106 -232 -108 -234 0
-121 -137 -123 -139 0
-121 -172 -123 -174 0
-121 -191 -123 -193 0
-121 -232 -123 -234 0
-137 -154 -139 -156 0
-137 -232 -139 -234 0
-137 -254 -139 -256 0
-154 -172 -156 -174 0
-154 -191 -156 -193 0
-154 -211 -156 -213 0
-172 -211 -174 -213 0
-172 -254 -174 -256 0
-191 -211 -193 -213 0
-191 -254 -193 -256 0
-211 -232 -213 -234 0
-232 -254 -234 -256 0
-7 -29 -79 -33 -83 0
-7 -29 -92 -33 -96 0
-7 -29 -106 -33 -110 0
-7 -29 -191 -33 -195 0
-7 -29 -211 -33 -215 0
-7 -29 -232 -33 -236 0
-7 -29 -254 -33 -258 0
-7 -37 -56 -41 -60 0
-7 -37 -67 -41 -71 0
-7 -37 -106 -41 -110 0
-7 -37 -154 -41 -158 0
-7 -37 -172 -41 -176 0
-7 -37 -232 -41 -236 0
-7 -37 -254 -41 -258 0
-7 -46 -56 -50 -60 0
-7 -46 -67 -50 -71 0
-7 -46 -92 -50 -96 0
-7 -46 -121 -50 -125 0
-7 -46 -137 -50 -141 0
-7 -46 -191 -50 -195 0
-7 -46 -211 -50 -215 0
-7 -56 -67 -60 -71 0
-7 -56 -137 -60 -141 0
-7 -56 -154 -60 -158 0
-7 -56 -191 -60 -195 0
-7 -56 -254 -60 -258 0
-7 -67 -121 -71 -125 0
-7 -67 -172 -71 -176 0
-7 -67 -211 -71 -215 0
-7 -67 -232 -71 -236 0
-7 -79 -92 -83 -96 0
-7 -79 -106 -83 -110 0
-7 -79 -121 -83 -125 0
-7 -79 -137 -83 -141 0
-7 -79 -154 -83 -158 0
-7 -79 -172 -83 -176 0
-7 -92 -137 -96 -141 0
-7 -92 -172 -96 -176 0
-7 -92 -211 -96 -215 0
-7 -92 -254 -96 -258 0
-7 -106 -121 -110 -125 0
-7 -106 -154 -110 -158 0
-7 -106 -191 -110 -195 0
-7 -106 -232 -110 -236 0
-7 -121 -137 -125 -141 0
-7 -121 -172 -125 -176 0
-7 -121 -191 -125 -195 0
-7 -121 -232 -125 -236 0
-7 -137 -154 -141 -158 0
-7 -137 -232 -141 -236 0
-7 -137 -254 -141 -258 0
-7 -154 -172 -158 -176 0
-7 -154 -191 -158 -195 0
-7 -154 -211 -158 -215 0
-7 -172 -211 -176 -215 0
-7 -172 -254 -176 -258 0
-7 -191 -211 -195 -215 0
-7 -191 -254 -195 -258 0
-7 -211 -232 -215 -236 0
-7 -232 -254 -236 -258 0
-29 -79 -92 0
-29 -79 -106 0
-29 -92 -211 0
-29 -92 -254 0
-29 -106 -191 0
-29 -106 -232 0
-29 -191 -211 0
-29 -191 -254 0
-29 -211 -232 0
-29 -232 -254 0
-37 -56 -67 0
-37 -56 -154 0
-37 -56 -254 0
-37 -67 -172 0
-37 -67 -232 0
-37 -106 -154 0
-37 -106 -232 0
-37 -154 -172 0
-37 -172 -254 0
-37 -232 -254 0
-46 -56 -67 0
-46 -56 -137 0
-46 -56 -191 0
-46 -67 -121 0
-46 -67 -211 0
-46 -92 -137 0
-46 -92 -211 0
-46 -121 -137 0
-46 -121 -191 0
-46 -191 -211 0
-56 -137 -154 0
-56 -137 -254 0
-56 -154 -191 0
-56 -191 -254 0
-67 -121 -172 0
-67 -121 -232 0
-67 -172 -211 0
-67 -211 -232 0
-79 -92 -137 0
-79 -92 -172 0
-79 -106 -121 0
-79 -106 -154 0
-79 -121 -137 0
-79 -121 -172 0
-79 -137 -154 0
-79 -154 -172 0
-92 -137 -254 0
-92 -172 -211 0
-92 -172 -254 0
-106 -121 -191 0
-106 -121 -232 0
-106 -154 -191 0
-121 -137 -232 0
-137 -232 -254 0
-154 -172 -211 0
-154 -191 -211 0
-17 -30 -80 -35 -85 0
-17 -30 -93 -35 -98 0
-17 -30 -107 -35 -112 0
-17 -30 -192 -35 -197 0
-17 -30 -212 -35 -217 0
-17 -30 -233 -35 -238 0
-17 -30 -255 -35 -260 0
-17 -38 -57 -43 -62 0
-17 -38 -68 -43 -73 0
-17 -38 -107 -43 -112 0
-17 -38 -155 -43 -160 0
-17 -38 -173 -43 -178 0
-17 -38 -233 -43 -238 0
-17 -38 -255 -43 -260 0
-17 -47 -57 -52 -62 0
-17 -47 -68 -52 -73 0
-17 -47 -93 -52 -98 0
-17 -47 -122 -52 -127 0
-17 -47 -138 -52 -143 0
-17 -47 -192 -52 -197 0
-17 -47 -212 -52 -217 0
-17 -57 -68 -62 -73 0
-17 -57 -138 -62 -143 0
-17 -57 -155 -62 -160 0
-17 -57 -192 -62 -197 0
-17 -57 -255 -62 -260 0
-17 -68 -122 -73 -127 0
-17 -68 -173 -73 -178 0
-17 -68 -212 -73 -217 0
-17 -68 -233 -73 -238 0
-17 -80 -93 -85 -98 0
-17 -80 -107 -85 -112 0
-17 -80 -122 -85 -127 0
-17 -80 -138 -85 -143 0
-17 -80 -155 -85 -160 0
-17 -80 -173 -85 -178 0
-17 -93 -138 -98 -143 0
-17 -93 -173 -98 -178 0
-17 -93 -212 -98 -217 0
-17 -93 -255 -98 -260 0
-17 -107 -122 -112 -127 0
-17 -107 -155 -112 -160 0
-17 -107 -192 -112 -197 0
-17 -107 -233 -112 -238 0
-17 -122 -138 -127 -143 0
-17 -122 -173 -127 -178 0
-17 -122 -192 -127 -197 0
-17 -122 -233 -127 -238 0
-17 -138 -155 -143 -160 0
-17 -138 -233 -143 -238 0
-17 -138 -255 -143 -260 0
-17 -155 -173 -160 -178 0
-17 -155 -192 -160 -197 0
-17 -155 -212 -160 -217 0
-17 -173 -212 -178 -217 0
-17 -173 -255 -178 -260 0
-17 -192 -212 -197 -217 0
-17 -192 -255 -197 -260 0
-17 -212 -233 -217 -238 0
-17 -233 -255 -238 -260 0
-30 -80 -36 -86 0
-30 -93 -36 -99 0
-30 -107 -36 -113 0
-30 -192 -36 -198 0
-30 -212 -36 -218 0
-30 -233 -36 -239 0
-30 -255 -36 -261 0
-38 -57 -44 -63 0
-38 -68 -44 -74 0
-38 -107 -44 -113 0
-38 -155 -44 -161 0
-38 -173 -44 -179 0
-38 -233 -44 -239 0
-38 -255 -44 -261 0
-47 -57 -53 -63 0
-47 -68 -53 -74 0
-47 -93 -53 -99 0
-47 -122 -53 -128 0
-47 -138 -53 -144 0
-47 -192 -53 -198 0
-47 -212 -53 -218 0
-57 -68 -63 -74 0
-57 -138 -63 -144 0
-57 -155 -63 -161 0
-57 -192 -63 -198 0
-57 -255 -63 -261 0
-68 -122 -74 -128 0
-68 -173 -74 -179 0
-68 -212 -74 -218 0
-68 -233 -74 -239 0
-80 -93 -86 -99 0
-80 -107 -86 -113 0
-80 -122 -86 -128 0
-80 -138 -86 -144 0
-80 -155 -86 -161 0
-80 -173 -86 -179 0
-93 -138 -99 -144 0
-93 -173 -99 -179 0
-93 -212 -99 -218 0
-93 -255 -99 -261 0
-107 -122 -113 -128 0
-107 -155 -113 -161 0
-107 -192 -113 -198 0
-107 -233 -113 -239 0
-122 -138 -128 -144 0
-122 -173 -128 -179 0
-122 -192 -128 -198 0
-122 -233 -128 -239 0
-138 -155 -144 -161 0
-138 -233 -144 -239 0
-138 -255 -144 -261 0
-155 -173 -161 -179 0
-155 -192 -161 -198 0
-155 -212 -161 -218 0
-173 -212 -179 -218 0
-173 -255 -179 -261 0
-192 -212 -198 -218 0
-192 -255 -198 -261 0
-212 -233 -218 -239 0
-233 -255 -239 -261 0
-30 -80 -93 0
-30 -80 -107 0
-30 -93 -212 0
-30 -93 -255 0
-30 -107 -192 0
-30 -107 -233 0
-30 -192 -212 0
-30 -192 -255 0
-30 -212 -233 0
-30 -233 -255 0
-38 -57 -68 0
-38 -57 -155 0
-38 -57 -255 0
-38 -68 -173 0
-38 -68 -233 0
-38 -107 -155 0
-38 -107 -233 0
-38 -155 -173 0
-38 -173 -255 0
-38 -233 -255 0
-47 -57 -68 0
-47 -57 -138 0
-47 -57 -192 0
-47 -68 -122 0
-47 -68 -212 0
-47 -93 -138 0
-47 -93 -212 0
-47 -122 -138 0
-47 -122 -192 0
-47 -192 -212 0
-57 -138 -155 0
-57 -138 -255 0
-57 -155 -192 0
-57 -192 -255 0
-68 -122 -173 0
-68 -122 -233 0
-68 -173 -212 0
-68 -212 -233 0
-80 -93 -138 0
-80 -93 -173 0
-80 -107 -122 0
-80 -107 -155 0
-80 -122 -138 0
-80 -122 -173 0
-80 -138 -155 0
-80 -155 -173 0
-93 -138 -255 0
-93 -173 -212 0
-93 -173 -255 0
-107 -122 -192 0
-107 -122 -233 0
-107 -155 -192 0
-122 -138 -233 0
-138 -233 -255 0
-155 -173 -212 0
-155 -192 -212 0
-31 -81 -34 -84 0
-31 -94 -34 -97 0
-31 -108 -34 -111 0
-31 -193 -34 -196 0
-31 -213 -34 -216 0
-31 -234 -34 -237 0
-31 -256 -34 -259 0
-39 -58 -42 -61 0
-39 -69 -42 -72 0
-39 -108 -42 -111 0
-39 -156 -42 -159 0
-39 -174 -42 -177 0
-39 -234 -42 -237 0
-39 -256 -42 -259 0
-48 -58 -51 -61 0
-48 -69 -51 -72 0
-48 -94 -51 -97 0
-48 -123 -51 -126 0
-48 -139 -51 -142 0
-48 -193 -51 -196 0
-48 -213 -51 -216 0
-58 -69 -61 -72 0
-58 -139 -61 -142 0
-58 -156 -61 -159 0
-58 -193 -61 -196 0
-58 -256 -61 -259 0
-69 -123 -72 -126 0
-69 -174 -72 -177 0
-69 -213 -72 -216 0
-69 -234 -72 -237 0
-81 -94 -84 -97 0
-81 -108 -84 -111 0
-81 -123 -84 -126 0
-81 -139 -84 -142 0
-81 -156 -84 -159 0
-81 -174 -84 -177 0
-94 -139 -97 -142 0
-94 -174 -97 -177 0
-94 -213 -97 -216 0
-94 -256 -97 -259 0
-108 -123 -111 -126 0
-108 -156 -111 -159 0
-108 -193 -111 -196 0
-108 -234 -111 -237 0
-123 -139 -126 -142 0
-123 -174 -126 -177 0
-123 -193 -126 -196 0
-123 -234 -126 -237 0
-139 -156 -142 -159 0
-139 -234 -142 -237 0
-139 -256 -142 -259 0
-156 -174 -159 -177 0
-156 -193 -159 -196 0
-156 -213 -159 -216 0
-174 -213 -177 -216 0
-174 -256 -177 -259 0
-193 -213 -196 -216 0
-193 -256 -196 -259 0
-213 -234 -216 -237 0
-234 -256 -237 -259 0
-31 -81 -94 0
-31 -81 -108 0
-31 -94 -213 0
-31 -94 -256 0
-31 -108 -193 0
-31 -108 -234 0
-31 -193 -213 0
-31 -193 -256 0
-31 -213 -234 0
-31 -234 -256 0
-39 -58 -69 0
-39 -58 -156 0
-39 -58 -256 0
-39 -69 -174 0
-39 -69 -234 0
-39 -108 -156 0
-39 -108 -234 0
-39 -156 -174 0
-39 -174 -256 0
-39 -234 -256 0
-48 -58 -69 0
-48 -58 -139 0
-48 -58 -193 0
-48 -69 -123 0
-48 -69 -213 0
-48 -94 -139 0
-48 -94 -213 0
-48 -123 -139 0
-48 -123 -193 0
-48 -193 -213 0
-58 -139 -156 0
-58 -139 -256 0
-58 -156 -193 0
-58 -193 -256 0
-69 -123 -174 0
-69 -123 -234 0
-69 -174 -213 0
-69 -213 -234 0
-81 -94 -139 0
-81 -94 -174 0
-81 -108 -123 0
-81 -108 -156 0
-81 -123 -139 0
-81 -123 -174 0
-81 -139 -156 0
-81 -156 -174 0
-94 -139 -256 0
-94 -174 -213 0
-94 -174 -256 0
-108 -123 -193 0
-108 -123 -234 0
-108 -156 -193 0
-123 -139 -234 0
-139 -234 -256 0
-156 -174 -213 0
-156 -193 -213 0
-14 -32 -82 -34 -84 0
-14 -32 -95 -34 -97 0
-14 -32 -109 -34 -111 0
-14 -32 -194 -34 -196 0
-14 -32 -214 -34 -216 0
-14 -32 -235 -34 -237 0
-14 -32 -257 -34 -259 0
-14 -40 -59 -42 -61 0
-14 -40 -70 -42 -72 0
-14 -40 -109 -42 -111 0
-14 -40 -157 -42 -159 0
-14 -40 -175 -42 -177 0
-14 -40 -235 -42 -237 0
-14 -40 -257 -42 -259 0
-14 -49 -59 -51 -61 0
-14 -49 -70 -51 -72 0
-14 -49 -95 -51 -97 0
-14 -49 -124 -51 -126 0
-14 -49 -140 -51 -142 0
-14 -49 -194 -51 -196 0
-14 -49 -214 -51 -216 0
-14 -59 -70 -61 -72 0
-14 -59 -140 -61 -142 0
-14 -59 -157 -61 -159 0
-14 -59 -194 -61 -196 0
-14 -59 -257 -61 -259 0
-14 -70 -124 -72 -126 0
-14 -70 -175 -72 -177 0
-14 -70 -214 -72 -216 0
-14 -70 -235 -72 -237 0
-14 -82 -95 -84 -97 0
-14 -82 -109 -84 -111 0
-14 -82 -124 -84 -126 0
-14 -82 -140 -84 -142 0
-14 -82 -157 -84 -159 0
-14 -82 -175 -84 -177 0
-14 -95 -140 -97 -142 0
-14 -95 -175 -97 -177 0
-14 -95 -214 -97 -216 0
-14 -95 -257 -97 -259 0
-14 -109 -124 -111 -126 0
-14 -109 -157 -111 -159 0
-14 -109 -194 -111 -196 0
-14 -109 -235 -111 -237 0
-14 -124 -140 -126 -142 0
-14 -124 -175 -126 -177 0
-14 -124 -194 -126 -196 0
-14 -124 -235 -126 -237 0
-14 -140 -157 -142 -159 0
-14 -140 -235 -142 -237 0
-14 -140 -257 -142 -259 0
-14 -157 -175 -159 -177 0
-14 -157 -194 -159 -196 0
-14 -157 -214 -159 -216 0
-14 -175 -214 -177 -216 0
-14 -175 -257 -177 -259 0
-14 -194 -214 -196 -216 0
-14 -194 -257 -196 -259 0
-14 -214 -235 -216 -237 0
-14 -235 -257 -237 -259 0
-32 -82 -35 -85 0
-32 -95 -35 -98 0
-32 -109 -35 -112 0
-32 -194 -35 -197 0
-32 -214 -35 -217 0
-32 -235 -35 -238 0
-32 -257 -35 -260 0
-40 -59 -43 -62 0
-40 -70 -43 -73 0
-40 -109 -43 -112 0
-40 -157 -43 -160 0
-40 -175 -43 -178 0
-40 -235 -43 -238 0
-40 -257 -43 -260 0
-49 -59 -52 -62 0
-49 -70 -52 -73 0
-49 -95 -52 -98 0
-49 -124 -52 -127 0
-49 -140 -52 -143 0
-49 -194 -52 -197 0
-49 -214 -52 -217 0
-59 -70 -62 -73 0
-59 -140 -62 -143 0
-59 -157 -62 -160 0
-59 -194 -62 -197 0
-59 -257 -62 -260 0
-70 -124 -73 -127 0
-70 -175 -73 -178 0
-70 -214 -73 -217 0
-70 -235 -73 -238 0
-82 -95 -85 -98 0
-82 -109 -85 -112 0
-82 -124 -85 -127 0
-82 -140 -85 -143 0
-82 -157 -85 -160 0
-82 -175 -85 -178 0
-95 -140 -98 -143 0
-95 -175 -98 -178 0
-95 -214 -98 -217 0
-95 -257 -98 -260 0
-109 -124 -112 -127 0
-109 -157 -112 -160 0
-109 -194 -112 -197 0
-109 -235 -112 -238 0
-124 -140 -127 -143 0
-124 -175 -127 -178 0
-124 -194 -127 -197 0
-124 -235 -127 -238 0
-140 -157 -143 -160 0
-140 -235 -143 -238 0
-140 -257 -143 -260 0
-157 -175 -160 -178 0
-157 -194 -160 -197 0
-157 -214 -160 -217 0
-175 -214 -178 -217 0
-175 -257 -178 -260 0
-194 -214 -197 -217 0
-194 -257 -197 -260 0
-214 -235 -217 -238 0
-235 -257 -238 -260 0
-32 -82 -36 -86 0
-32 -95 -36 -99 0
-32 -109 -36 -113 0
-32 -194 -36 -198 0
-32 -214 -36 -218 0
-32 -235 -36 -239 0
-32 -257 -36 -261 0
-40 -59 -44 -63 0
-40 -70 -44 -74 0
-40 -109 -44 -113 0
-40 -157 -44 -161 0
-40 -175 -44 -179 0
-40 -235 -44 -239 0
-40 -257 -44 -261 0
-49 -59 -53 -63 0
-49 -70 -53 -74 0
-49 -95 -53 -99 0
-49 -124 -53 -128 0
-49 -140 -53 -144 0
-49 -194 -53 -198 0
-49 -214 -53 -218 0
-59 -70 -63 -74 0
-59 -140 -63 -144 0
-59 -157 -63 -161 0
-59 -194 -63 -198 0
-59 -257 -63 -261 0
-70 -124 -74 -128 0
-70 -175 -74 -179 0
-70 -214 -74 -218 0
-70 -235 -74 -239 0
-82 -95 -86 -99 0
-82 -109 -86 -113 0
-82 -124 -86 -128 0
-82 -140 -86 -144 0
-82 -157 -86 -161 0
-82 -175 -86 -179 0
-95 -140 -99 -144 0
-95 -175 -99 -179 0
-95 -214 -99 -218 0
-95 -257 -99 -261 0
-109 -124 -113 -128 0
-109 -157 -113 -161 0
-109 -194 -113 -198 0
-109 -235 -113 -239 0
-124 -140 -128 -144 0
-124 -175 -128 -179 0
-124 -194 -128 -198 0
-124 -235 -128 -239 0
-140 -157 -144 -161 0
-140 -235 -144 -239 0
-140 -257 -144 -261 0
-157 -175 -161 -179 0
-157 -194 -161 -198 0
-157 -214 -161 -218 0
-175 -214 -179 -218 0
-175 -257 -179 -261 0
-194 -214 -198 -218 0
-194 -257 -198 -261 0
-214 -235 -218 -239 0
-235 -257 -239 -261 0
-32 -82 -95 0
-32 -82 -109 0
-32 -95 -214 0
-32 -95 -257 0
-32 -109 -194 0
-32 -109 -235 0
-32 -194 -214 0
-32 -194 -257 0
-32 -214 -235 0
-32 -235 -257 0
-40 -59 -70 0
-40 -59 -157 0
-40 -59 -257 0
-40 -70 -175 0
-40 -70 -235 0
-40 -109 -157 0
-40 -109 -235 0
-40 -157 -175 0
-40 -175 -257 0
-40 -235 -257 0
-49 -59 -70 0
-49 -59 -140 0
-49 -59 -194 0
-49 -70 -124 0
-49 -70 -214 0
-49 -95 -140 0
-49 -95 -214 0
-49 -124 -140 0
-49 -124 -194 0
-49 -194 -214 0
-59 -140 -157 0
-59 -140 -257 0
-59 -157 -194 0
-59 -194 -257 0
-70 -124 -175 0
-70 -124 -235 0
-70 -175 -214 0
-70 -214 -235 0
-82 -95 -140 0
-82 -95 -175 0
-82 -109 -124 0
-82 -109 -157 0
-82 -124 -140 0
-82 -124 -175 0
-82 -140 -157 0
-82 -157 -175 0
-95 -140 -257 0
-95 -175 -214 0
-95 -175 -257 0
-109 -124 -194 0
-109 -124 -235 0
-109 -157 -194 0
-124 -140 -235 0
-140 -235 -257 0
-157 -175 -214 0
-157 -194 -214 0
-33 -83 -34 -84 0
-33 -96 -34 -97 0
-33 -110 -34 -111 0
-33 -195 -34 -196 0
-33 -215 -34 -216 0
-33 -236 -34 -237 0
-33 -258 -34 -259 0
-41 -60 -42 -61 0
-41 -71 -42 -72 0
-41 -110 -42 -111 0
-41 -158 -42 -159 0
-41 -176 -42 -177 0
-41 -236 -42 -237 0
-41 -258 -42 -259 0
-50 -60 -51 -61 0
-50 -71 -51 -72 0
-50 -96 -51 -97 0
-50 -125 -51 -126 0
-50 -141 -51 -142 0
-50 -195 -51 -196 0
-50 -215 -51 -216 0
-60 -71 -61 -72 0
-60 -141 -61 -142 0
-60 -158 -61 -159 0
-60 -195 -61 -196 0
-60 -258 -61 -259 0
-71 -125 -72 -126 0
-71 -176 -72 -177 0
-71 -215 -72 -216 0
-71 -236 -72 -237 0
-83 -96 -84 -97 0
-83 -110 -84 -111 0
-83 -125 -84 -126 0
-83 -141 -84 -142 0
-83 -158 -84 -159 0
-83 -176 -84 -177 0
-96 -141 -97 -142 0
-96 -176 -97 -177 0
-96 -215 -97 -216 0
-96 -258 -97 -259 0
-110 -125 -111 -126 0
-110 -158 -111 -159 0
-110 -195 -111 -196 0
-110 -236 -111 -237 0
-125 -141 -126 -142 0
-125 -176 -126 -177 0
-125 -195 -126 -196 0
-125 -236 -126 -237 0
-141 -158 -142 -159 0
-141 -236 -142 -237 0
-141 -258 -142 -259 0
-158 -176 -159 -177 0
-158 -195 -159 -196 0
-158 -215 -159 -216 0
-176 -215 -177 -216 0
-176 -258 -177 -259 0
-195 -215 -196 -216 0
-195 -258 -196 -259 0
-215 -236 -216 -237 0
-236 -258 -237 -259 0
-33 -83 -35 -85 0
-33 -96 -35 -98 0
-33 -110 -35 -112 0
-33 -195 -35 -197 0
-33 -215 -35 -217 0
-33 -236 -35 -238 0
-33 -258 -35 -260 0
-41 -60 -43 -62 0
-41 -71 -43 -73 0
-41 -110 -43 -112 0
-41 -158 -43 -160 0
-41 -176 -43 -178 0
-41 -236 -43 -238 0
-41 -258 -43 -260 0
-50 -60 -52 -62 0
-50 -71 -52 -73 0
-50 -96 -52 -98 0
-50 -125 -52 -127 0
-50 -141 -52 -143 0
-50 -195 -52 -197 0
-50 -215 -52 -217 0
-60 -71 -62 -73 0
-60 -141 -62 -143 0
-60 -158 -62 -160 0
-60 -195 -62 -197 0
-60 -258 -62 -260 0
-71 -125 -73 -127 0
-71 -176 -73 -178 0
-71 -215 -73 -217 0
-71 -236 -73 -238 0
-83 -96 -85 -98 0
-83 -110 -85 -112 0
-83 -125 -85 -127 0
-83 -141 -85 -143 0
-83 -158 -85 -160 0
-83 -176 -85 -178 0
-96 -141 -98 -143 0
-96 -176 -98 -178 0
-96 -215 -98 -217 0
-96 -258 -98 -260 0
-110 -125 -112 -127 0
-110 -158 -112 -160 0
-110 -195 -112 -197 0
-110 -236 -112 -238 0
-125 -141 -127 -143 0
-125 -176 -127 -178 0
-125 -195 -127 -197 0
-125 -236 -127 -238 0
-141 -158 -143 -160 0
-141 -236 -143 -238 0
-141 -258 -143 -260 0
-158 -176 -160 -178 0
-158 -195 -160 -197 0
-158 -215 -160 -217 0
-176 -215 -178 -217 0
-176 -258 -178 -260 0
-195 -215 -197 -217 0
-195 -258 -197 -260 0
-215 -236 -217 -238 0
-236 -258 -238 -260 0
-33 -83 -36 -86 0
-33 -96 -36 -99 0
-33 -110 -36 -113 0
-33 -195 -36 -198 0
-33 -215 -36 -218 0
-33 -236 -36 -239 0
-33 -258 -36 -261 0
-41 -60 -44 -63 0
-41 -71 -44 -74 0
-41 -110 -44 -113 0
-41 -158 -44 -161 0
-41 -176 -44 -179 0
-41 -236 -44 -239 0
-41 -258 -44 -261 0
-50 -60 -53 -63 0
-50 -71 -53 -74 0
-50 -96 -53 -99 0
-50 -125 -53 -128 0
-50 -141 -53 -144 0
-50 -195 -53 -198 0
-50 -215 -53 -218 0
-60 -71 -63 -74 0
-60 -141 -63 -144 0
-60 -158 -63 -161 0
-60 -195 -63 -198 0
-60 -258 -63 -261 0
-71 -125 -74 -128 0
-71 -176 -74 -179 0
-71 -215 -74 -218 0
-71 -236 -74 -239 0
-83 -96 -86 -99 0
-83 -110 -86 -113 0
-83 -125 -86 -128 0
-83 -141 -86 -144 0
-83 -158 -86 -161 0
-83 -176 -86 -179 0
-96 -141 -99 -144 0
-96 -176 -99 -179 0
-96 -215 -99 -218 0
-96 -258 -99 -261 0
-110 -125 -113 -128 0
-110 -158 -113 -161 0
-110 -195 -113 -198 0
-110 -236 -113 -239 0
-125 -141 -128 -144 0
-125 -176 -128 -179 0
-125 -195 -128 -198 0
-125 -236 -128 -239 0
-141 -158 -144 -161 0
-141 -236 -144 -239 0
-141 -258 -144 -261 0
-158 -176 -161 -179 0
-158 -195 -161 -198 0
-158 -215 -161 -218 0
-176 -215 -179 -218 0
-176 -258 -179 -261 0
-195 -215 -198 -218 0
-195 -258 -198 -261 0
-215 -236 -218 -239 0
-236 -258 -239 -261 0
-33 -83 -96 0
-33 -83 -110 0
-33 -96 -215 0
-33 -96 -258 0
-33 -110 -195 0
-33 -110 -236 0
-33 -195 -215 0
-33 -195 -258 0
-33 -215 -236 0
-33 -236 -258 0
-41 -60 -71 0
-41 -60 -158 0
-41 -60 -258 0
-41 -71 -176 0
-41 -71 -236 0
-41 -110 -158 0
-41 -110 -236 0
-41 -158 -176 0
-41 -176 -258 0
-41 -236 -258 0
-50 -60 -71 0
-50 -60 -141 0
-50 -60 -195 0
-50 -71 -125 0
-50 -71 -215 0
-50 -96 -141 0
-50 -96 -215 0
-50 -125 -141 0
-50 -125 -195 0
-50 -195 -215 0
-60 -141 -158 0
-60 -141 -258 0
-60 -158 -195 0
-60 -195 -258 0
-71 -125 -176 0
-71 -125 -236 0
-71 -176 -215 0
-71 -215 -236 0
-83 -96 -141 0
-83 -96 -176 0
-83 -110 -125 0
-83 -110 -158 0
-83 -125 -141 0
-83 -125 -176 0
-83 -141 -158 0
-83 -158 -176 0
-96 -141 -258 0
-96 -176 -215 0
-96 -176 -258 0
-110 -125 -195 0
-110 -125 -236 0
-110 -158 -195 0
-125 -141 -236 0
-141 -236 -258 0
-158 -176 -215 0
-158 -195 -215 0
-34 -84 -97 0
-34 -84 -111 0
-34 -97 -216 0
-34 -97 -259 0
-34 -111 -196 0
-34 -111 -237 0
-34 -196 -216 0
-34 -196 -259 0
-34 -216 -237 0
-34 -237 -259 0
-42 -61 -72 0
-42 -61 -159 0
-42 -61 -259 0
-42 -72 -177 0
-42 -72 -237 0
-42 -111 -159 0
-42 -111 -237 0
-42 -159 -177 0
-42 -177 -259 0
-42 -237 -259 0
-51 -61 -72 0
-51 -61 -142 0
-51 -61 -196 0
-51 -72 -126 0
-51 -72 -216 0
-51 -97 -142 0
-51 -97 -216 0
-51 -126 -142 0
-51 -126 -196 0
-51 -196 -216 0
-61 -142 -159 0
-61 -142 -259 0
-61 -159 -196 0
-61 -196 -259 0
-72 -126 -177 0
-72 -126 -237 0
-72 -177 -216 0
-72 -216 -237 0
-84 -97 -142 0
-84 -97 -177 0
-84 -111 -126 0
-84 -111 -159 0
-84 -126 -142 0
-84 -126 -177 0
-84 -142 -159 0
-84 -159 -177 0
-97 -142 -259 0
-97 -177 -216 0
-97 -177 -259 0
-111 -126 -196 0
-111 -126 -237 0
-111 -159 -196 0
-126 -142 -237 0
-142 -237 -259 0
-159 -177 -216 0
-159 -196 -216 0
-35 -85 -98 0
-35 -85 -112 0
-35 -98 -217 0
-35 -98 -260 0
-35 -112 -197 0
-35 -112 -238 0
-35 -197 -217 0
-35 -197 -260 0
-35 -217 -238 0
-35 -238 -260 0
-43 -62 -73 0
-43 -62 -160 0
-43 -62 -260 0
-43 -73 -178 0
-43 -73 -238 0
-43 -112 -160 0
-43 -112 -238 0
-43 -160 -178 0
-43 -178 -260 0
-43 -238 -260 0
-52 -62 -73 0
-52 -62 -143 0
-52 -62 -197 0
-52 -73 -127 0
-52 -73 -217 0
-52 -98 -143 0
-52 -98 -217 0
-52 -127 -143 0
-52 -127 -197 0
-52 -197 -217 0
-62 -143 -160 0
-62 -143 -260 0
-62 -160 -197 0
-62 -197 -260 0
-73 -127 -178 0
-73 -127 -238 0
-73 -178 -217 0
-73 -217 -238 0
-85 -98 -143 0
-85 -98 -178 0
-85 -112 -127 0
-85 -112 -160 0
-85 -127 -143 0
-85 -127 -178 0
-85 -143 -160 0
-85 -160 -178 0
-98 -143 -260 0
-98 -178 -217 0
-98 -178 -260 0
-112 -127 -197 0
-112 -127 -238 0
-112 -160 -197 0
-127 -143 -238 0
-143 -238 -260 0
-160 -178 -217 0
-160 -197 -217 0
-36 -86 -99 0
-36 -86 -113 0
-36 -99 -218 0
-36 -99 -261 0
-36 -113 -198 0
-36 -113 -239 0
-36 -198 -218 0
-36 -198 -261 0
-36 -218 -239 0
-36 -239 -261 0
-44 -63 -74 0
-44 -63 -161 0
-44 -63 -261 0
-44 -74 -179 0
-44 -74 -239 0
-44 -113 -161 0
-44 -113 -239 0
-44 -161 -179 0
-44 -179 -261 0
-44 -239 -261 0
-53 -63 -74 0
-53 -63 -144 0
-53 -63 -198 0
-53 -74 -128 0
-53 -74 -218 0
-53 -99 -144 0
-53 -99 -218 0
-53 -128 -144 0
-53 -128 -198 0
-53 -198 -218 0
-63 -144 -161 0
-63 -144 -261 0
-63 -161 -198 0
-63 -198 -261 0
-74 -128 -179 0
-74 -128 -239 0
-74 -179 -218 0
-74 -218 -239 0
-86 -99 -144 0
-86 -99 -179 0
-86 -113 -128 0
-86 -113 -161 0
-86 -128 -144 0
-86 -128 -179 0
-86 -144 -161 0
-86 -161 -179 0
-99 -144 -261 0
-99 -179 -218 0
-99 -179 -261 0
-113 -128 -198 0
-113 -128 -239 0
-113 -161 -198 0
-128 -144 -239 0
-144 -239 -261 0
-161 -179 -218 0
-161 -198 -218 0
1 7 29 30 32 33 0
1 7 37 38 40 41 0
1 7 46 47 49 50 0
1 7 56 57 59 60 0
1 7 67 68 70 71 0
1 7 79 80 82 83 0
1 7 92 93 95 96 0
1 7 106 107 109 110 0
1 7 121 122 124 125 0
1 7 137 138 140 141 0
1 7 154 155 157 158 0
1 7 172 173 175 176 0
1 7 191 192 194 195 0
1 7 211 212 214 215 0
1 7 232 233 235 236 0
1 7 254 255 257 258 0
1 29 30 14 32 34 0
1 37 38 14 40 42 0
1 46 47 14 49 51 0
1 56 57 14 59 61 0
1 67 68 14 70 72 0
1 79 80 14 82 84 0
1 92 93 14 95 97 0
1 106 107 14 109 111 0
1 121 122 14 124 126 0
1 137 138 14 140 142 0
1 154 155 14 157 159 0
1 172 173 14 175 177 0
1 191 192 14 194 196 0
1 211 212 14 214 216 0
1 232 233 14 235 237 0
1 254 255 14 257 259 0
1 29 37 30 38 32 40 0
1 29 46 30 47 32 49 0
1 29 56 30 57 32 59 0
1 29 67 30 68 32 70 0
1 29 121 30 122 32 124 0
1 29 137 30 138 32 140 0
1 29 154 30 155 32 157 0
1 29 172 30 173 32 175 0
1 37 46 38 47 40 49 0
1 37 79 38 80 40 82 0
1 37 92 38 93 40 95 0
1 37 121 38 122 40 124 0
1 37 137 38 138 40 140 0
1 37 191 38 192 40 194 0
1 37 211 38 212 40 214 0
1 46 79 47 80 49 82 0
1 46 106 47 107 49 109 0
1 46 154 47 155 49 157 0
1 46 172 47 173 49 175 0
1 46 232 47 233 49 235 0
1 46 254 47 255 49 257 0
1 56 79 57 80 59 82 0
1 56 92 57 93 59 95 0
1 56 106 57 107 59 109 0
1 56 121 57 122 59 124 0
1 56 172 57 173 59 175 0
1 56 211 57 212 59 214 0
1 56 232 57 233 59 235 0
1 67 79 68 80 70 82 0
1 67 92 68 93 70 95 0
1 67 106 68 107 70 109 0
1 67 137 68 138 70 140 0
1 67 154 68 155 70 157 0
1 67 191 68 192 70 194 0
1 67 254 68 255 70 257 0
1 79 191 80 192 82 194 0
1 79 211 80 212 82 214 0
1 79 232 80 233 82 235 0
1 79 254 80 255 82 257 0
1 92 106 93 107 95 109 0
1 92 121 93 122 95 124 0
1 92 154 93 155 95 157 0
1 92 191 93 192 95 194 0
1 92 232 93 233 95 235 0
1 106 137 107 138 109 140 0
1 106 172 107 173 109 175 0
1 106 211 107 212 109 214 0
1 106 254 107 255 109 257 0
1 121 154 122 155 124 157 0
1 121 211 122 212 124 214 0
1 121 254 122 255 124 257 0
1 137 172 138 173 140 175 0
1 137 191 138 192 140 194 0
1 137 211 138 212 140 214 0
1 154 232 155 233 157 235 0
1 154 254 155 255 157 257 0
1 172 191 173 192 175 194 0
1 172 232 173 233 175 235 0
1 191 232 192 233 194 235 0
1 211 254 212 255 214 257 0
1 7 29 37 30 38 33 41 0
1 7 29 46 30 47 33 50 0
1 7 29 56 30 57 33 60 0
1 7 29 67 30 68 33 71 0
1 7 29 121 30 122 33 125 0
1 7 29 137 30 138 33 141 0
1 7 29 154 30 155 33 158 0
1 7 29 172 30 173 33 176 0
1 7 37 46 38 47 41 50 0
1 7 37 79 38 80 41 83 0
1 7 37 92 38 93 41 96 0
1 7 37 121 38 122 41 125 0
1 7 37 137 38 138 41 141 0
1 7 37 191 38 192 41 195 0
1 7 37 211 38 212 41 215 0
1 7 46 79 47 80 50 83 0
1 7 46 106 47 107 50 110 0
1 7 46 154 47 155 50 158 0
1 7 46 172 47 173 50 176 0
1 7 46 232 47 233 50 236 0
1 7 46 254 47 255 50 258 0
1 7 56 79 57 80 60 83 0
1 7 56 92 57 93 60 96 0
1 7 56 106 57 107 60 110 0
1 7 56 121 57 122 60 125 0
1 7 56 172 57 173 60 176 0
1 7 56 211 57 212 60 215 0
1 7 56 232 57 233 60 236 0
1 7 67 79 68 80 71 83 0
1 7 67 92 68 93 71 96 0
1 7 67 106 68 107 71 110 0
1 7 67 137 68 138 71 141 0
1 7 67 154 68 155 71 158 0
1 7 67 191 68 192 71 195 0
1 7 67 254 68 255 71 258 0
1 7 79 191 80 192 83 195 0
1 7 79 211 80 212 83 215 0
1 7 79 232 80 233 83 236 0
1 7 79 254 80 255 83 258 0
1 7 92 106 93 107 96 110 0
1 7 92 121 93 122 96 125 0
1 7 92 154 93 155 96 158 0
1 7 92 191 93 192 96 195 0
1 7 92 232 93 233 96 236 0
1 7 106 137 107 138 110 141 0
1 7 106 172 107 173 110 176 0
1 7 106 211 107 212 110 215 0
1 7 106 254 107 255 110 258 0
1 7 121 154 122 155 125 158 0
1 7 121 211 122 212 125 215 0
1 7 121 254 122 255 125 258 0
1 7 137 172 138 173 141 176 0
1 7 137 191 138 192 141 195 0
1 7 137 211 138 212 141 215 0
1 7 154 232 155 233 158 236 0
1 7 154 254 155 255 158 258 0
1 7 172 191 173 192 176 195 0
1 7 172 232 173 233 176 236 0
1 7 191 232 192 233 195 236 0
1 7 211 254 212 255 215 258 0
1 29 17 30 34 35 0
1 37 17 38 42 43 0
1 46 17 47 51 52 0
1 56 17 57 61 62 0
1 67 17 68 72 73 0
1 79 17 80 84 85 0
1 92 17 93 97 98 0
1 106 17 107 111 112 0
1 121 17 122 126 127 0
1 137 17 138 142 143 0
1 154 17 155 159 160 0
1 172 17 173 177 178 0
1 191 17 192 196 197 0
1 211 17 212 216 217 0
1 232 17 233 237 238 0
1 254 17 255 259 260 0
1 29 37 30 38 34 42 0
1 29 46 30 47 34 51 0
1 29 56 30 57 34 61 0
1 29 67 30 68 34 72 0
1 29 121 30 122 34 126 0
1 29 137 30 138 34 142 0
1 29 154 30 155 34 159 0
1 29 172 30 173 34 177 0
1 37 46 38 47 42 51 0
1 37 79 38 80 42 84 0
1 37 92 38 93 42 97 0
1 37 121 38 122 42 126 0
1 37 137 38 138 42 142 0
1 37 191 38 192 42 196 0
1 37 211 38 212 42 216 0
1 46 79 47 80 51 84 0
1 46 106 47 107 51 111 0
1 46 154 47 155 51 159 0
1 46 172 47 173 51 177 0
1 46 232 47 233 51 237 0
1 46 254 47 255 51 259 0
1 56 79 57 80 61 84 0
1 56 92 57 93 61 97 0
1 56 106 57 107 61 111 0
1 56 121 57 122 61 126 0
1 56 172 57 173 61 177 0
1 56 211 57 212 61 216 0
1 56 232 57 233 61 237 0
1 67 79 68 80 72 84 0
1 67 92 68 93 72 97 0
1 67 106 68 107 72 111 0
1 67 137 68 138 72 142 0
1 67 154 68 155 72 159 0
1 67 191 68 192 72 196 0
1 67 254 68 255 72 259 0
1 79 191 80 192 84 196 0
1 79 211 80 212 84 216 0
1 79 232 80 233 84 237 0
1 79 254 80 255 84 259 0
1 92 106 93 107 97 111 0
1 92 121 93 122 97 126 0
1 92 154 93 155 97 159 0
1 92 191 93 192 97 196 0
1 92 232 93 233 97 237 0
1 106 137 107 138 111 142 0
1 106 172 107 173 111 177 0
1 106 211 107 212 111 216 0
1 106 254 107 255 111 259 0
1 121 154 122 155 126 159 0
1 121 211 122 212 126 216 0
1 121 254 122 255 126 259 0
1 137 172 138 173 142 177 0
1 137 191 138 192 142 196 0
1 137 211 138 212 142 216 0
1 154 232 155 233 159 237 0
1 154 254 155 255 159 259 0
1 172 191 173 192 177 196 0
1 172 232 173 233 177 237 0
1 191 232 192 233 196 237 0
1 211 254 212 255 216 259 0
1 29 37 17 30 38 35 43 0
1 29 46 17 30 47 35 52 0
1 29 56 17 30 57 35 62 0
1 29 67 17 30 68 35 73 0
1 29 121 17 30 122 35 127 0
1 29 137 17 30 138 35 143 0
1 29 154 17 30 155 35 160 0
1 29 172 17 30 173 35 178 0
1 37 46 17 38 47 43 52 0
1 37 79 17 38 80 43 85 0
1 37 92 17 38 93 43 98 0
1 37 121 17 38 122 43 127 0
1 37 137 17 38 138 43 143 0
1 37 191 17 38 192 43 197 0
1 37 211 17 38 212 43 217 0
1 46 79 17 47 80 52 85 0
1 46 106 17 47 107 52 112 0
1 46 154 17 47 155 52 160 0
1 46 172 17 47 173 52 178 0
1 46 232 17 47 233 52 238 0
1 46 254 17 47 255 52 260 0
1 56 79 17 57 80 62 85 0
1 56 92 17 57 93 62 98 0
1 56 106 17 57 107 62 112 0
1 56 121 17 57 122 62 127 0
1 56 172 17 57 173 62 178 0
1 56 211 17 57 212 62 217 0
1 56 232 17 57 233 62 238 0
1 67 79 17 68 80 73 85 0
1 67 92 17 68 93 73 98 0
1 67 106 17 68 107 73 112 0
1 67 137 17 68 138 73 143 0
1 67 154 17 68 155 73 160 0
1 67 191 17 68 192 73 197 0
1 67 254 17 68 255 73 260 0
1 79 191 17 80 192 85 197 0
1 79 211 17 80 212 85 217 0
1 79 232 17 80 233 85 238 0
1 79 254 17 80 255 85 260 0
1 92 106 17 93 107 98 112 0
1 92 121 17 93 122 98 127 0
1 92 154 17 93 155 98 160 0
1 92 191 17 93 192 98 197 0
1 92 232 17 93 233 98 238 0
1 106 137 17 107 138 112 143 0
1 106 172 17 107 173 112 178 0
1 106 211 17 107 212 112 217 0
1 106 254 17 107 255 112 260 0
1 121 154 17 122 155 127 160 0
1 121 211 17 122 212 127 217 0
1 121 254 17 122 255 127 260 0
1 137 172 17 138 173 143 178 0
1 137 191 17 138 192 143 197 0
1 137 211 17 138 212 143 217 0
1 154 232 17 155 233 160 238 0
1 154 254 17 155 255 160 260 0
1 172 191 17 173 192 178 197 0
1 172 232 17 173 233 178 238 0
1 191 232 17 192 233 197 238 0
1 211 254 17 212 255 217 260 0
1 29 37 46 30 38 47 0
1 29 37 121 30 38 122 0
1 29 37 137 30 38 138 0
1 29 46 154 30 47 155 0
1 29 46 172 30 47 173 0
1 29 56 121 30 57 122 0
1 29 56 172 30 57 173 0
1 29 67 137 30 68 138 0
1 29 67 154 30 68 155 0
1 29 121 154 30 122 155 0
1 29 137 172 30 138 173 0
1 37 46 79 38 47 80 0
1 37 79 191 38 80 192 0
1 37 79 211 38 80 212 0
1 37 92 121 38 93 122 0
1 37 92 191 38 93 192 0
1 37 121 211 38 122 212 0
1 37 137 191 38 138 192 0
1 37 137 211 38 138 212 0
1 46 79 232 47 80 233 0
1 46 79 254 47 80 255 0
1 46 106 172 47 107 173 0
1 46 106 254 47 107 255 0
1 46 154 232 47 155 233 0
1 46 154 254 47 155 255 0
1 46 172 232 47 173 233 0
1 56 79 211 57 80 212 0
1 56 79 232 57 80 233 0
1 56 92 106 57 93 107 0
1 56 92 121 57 93 122 0
1 56 92 232 57 93 233 0
1 56 106 172 57 107 173 0
1 56 106 211 57 107 212 0
1 56 121 211 57 122 212 0
1 56 172 232 57 173 233 0
1 67 79 191 68 80 192 0
1 67 79 254 68 80 255 0
1 67 92 106 68 93 107 0
1 67 92 154 68 93 155 0
1 67 92 191 68 93 192 0
1 67 106 137 68 107 138 0
1 67 106 254 68 107 255 0
1 67 137 191 68 138 192 0
1 67 154 254 68 155 255 0
1 79 191 232 80 192 233 0
1 79 211 254 80 212 255 0
1 92 121 154 93 122 155 0
1 92 154 232 93 155 233 0
1 92 191 232 93 192 233 0
1 106 137 172 107 138 173 0
1 106 137 211 107 138 212 0
1 106 211 254 107 212 255 0
1 121 154 254 122 155 255 0
1 121 211 254 122 212 255 0
1 137 172 191 138 173 192 0
1 172 191 232 173 192 233 0
7 29 37 32 40 33 41 0
7 29 46 32 49 33 50 0
7 29 56 32 59 33 60 0
7 29 67 32 70 33 71 0
7 29 121 32 124 33 125 0
7 29 137 32 140 33 141 0
7 29 154 32 157 33 158 0
7 29 172 32 175 33 176 0
7 37 46 40 49 41 50 0
7 37 79 40 82 41 83 0
7 37 92 40 95 41 96 0
7 37 121 40 124 41 125 0
7 37 137 40 140 41 141 0
7 37 191 40 194 41 195 0
7 37 211 40 214 41 215 0
7 46 79 49 82 50 83 0
7 46 106 49 109 50 110 0
7 46 154 49 157 50 158 0
7 46 172 49 175 50 176 0
7 46 232 49 235 50 236 0
7 46 254 49 257 50 258 0
7 56 79 59 82 60 83 0
7 56 92 59 95 60 96 0
7 56 106 59 109 60 110 0
7 56 121 59 124 60 125 0
7 56 172 59 175 60 176 0
7 56 211 59 214 60 215 0
7 56 232 59 235 60 236 0
7 67 79 70 82 71 83 0
7 67 92 70 95 71 96 0
7 67 106 70 109 71 110 0
7 67 137 70 140 71 141 0
7 67 154 70 157 71 158 0
7 67 191 70 194 71 195 0
7 67 254 70 257 71 258 0
7 79 191 82 194 83 195 0
7 79 211 82 214 83 215 0
7 79 232 82 235 83 236 0
7 79 254 82 257 83 258 0
7 92 106 95 109 96 110 0
7 92 121 95 124 96 125 0
7 92 154 95 157 96 158 0
7 92 191 95 194 96 195 0
7 92 232 95 235 96 236 0
7 106 137 109 140 110 141 0
7 106 172 109 175 110 176 0
7 106 211 109 214 110 215 0
7 106 254 109 257 110 258 0
7 121 154 124 157 125 158 0
7 121 211 124 214 125 215 0
7 121 254 124 257 125 258 0
7 137 172 140 175 141 176 0
7 137 191 140 194 141 195 0
7 137 211 140 214 141 215 0
7 154 232 157 235 158 236 0
7 154 254 157 257 158 258 0
7 172 191 175 194 176 195 0
7 172 232 175 235 176 236 0
7 191 232 194 235 195 236 0
7 211 254 214 257 215 258 0
29 37 14 32 40 34 42 0
29 46 14 32 49 34 51 0
29 56 14 32 59 34 61 0
29 67 14 32 70 34 72 0
29 121 14 32 124 34 126 0
29 137 14 32 140 34 142 0
29 154 14 32 157 34 159 0
29 172 14 32 175 34 177 0
37 46 14 40 49 42 51 0
37 79 14 40 82 42 84 0
37 92 14 40 95 42 97 0
37 121 14 40 124 42 126 0
37 137 14 40 140 42 142 0
37 191 14 40 194 42 196 0
37 211 14 40 214 42 216 0
46 79 14 49 82 51 84 0
46 106 14 49 109 51 111 0
46 154 14 49 157 51 159 0
46 172 14 49 175 51 177 0
46 232 14 49 235 51 237 0
46 254 14 49 257 51 259 0
56 79 14 59 82 61 84 0
56 92 14 59 95 61 97 0
56 106 14 59 109 61 111 0
56 121 14 59 124 61 126 0
56 172 14 59 175 61 177 0
56 211 14 59 214 61 216 0
56 232 14 59 235 61 237 0
67 79 14 70 82 72 84 0
67 92 14 70 95 72 97 0
67 106 14 70 109 72 111 0
67 137 14 70 140 72 142 0
67 154 14 70 157 72 159 0
67 191 14 70 194 72 196 0
67 254 14 70 257 72 259 0
79 191 14 82 194 84 196 0
79 211 14 82 214 84 216 0
79 232 14 82 235 84 237 0
79 254 14 82 257 84 259 0
92 106 14 95 109 97 111 0
92 121 14 95 124 97 126 0
92 154 14 95 157 97 159 0
92 191 14 95 194 97 196 0
92 232 14 95 235 97 237 0
106 137 14 109 140 111 142 0
106 172 14 109 175 111 177 0
106 211 14 109 214 111 216 0
106 254 14 109 257 111 259 0
121 154 14 124 157 126 159 0
121 211 14 124 214 126 216 0
121 254 14 124 257 126 259 0
137 172 14 140 175 142 177 0
137 191 14 140 194 142 196 0
137 211 14 140 214 142 216 0
154 232 14 157 235 159 237 0
154 254 14 157 257 159 259 0
172 191 14 175 194 177 196 0
172 232 14 175 235 177 237 0
191 232 14 194 235 196 237 0
211 254 14 214 257 216 259 0
29 37 46 32 40 49 0
29 37 121 32 40 124 0
29 37 137 32 40 140 0
29 46 154 32 49 157 0
29 46 172 32 49 175 0
29 56 121 32 59 124 0
29 56 172 32 59 175 0
29 67 137 32 70 140 0
29 67 154 32 70 157 0
29 121 154 32 124 157 0
29 137 172 32 140 175 0
37 46 79 40 49 82 0
37 79 191 40 82 194 0
37 79 211 40 82 214 0
37 92 121 40 95 124 0
37 92 191 40 95 194 0
37 121 211 40 124 214 0
37 137 191 40 140 194 0
37 137 211 40 140 214 0
46 79 232 49 82 235 0
46 79 254 49 82 257 0
46 106 172 49 109 175 0
46 106 254 49 109 257 0
46 154 232 49 157 235 0
46 154 254 49 157 257 0
46 172 232 49 175 235 0
56 79 211 59 82 214 0
56 79 232 59 82 235 0
56 92 106 59 95 109 0
56 92 121 59 95 124 0
56 92 232 59 95 235 0
56 106 172 59 109 175 0
56 106 211 59 109 214 0
56 121 211 59 124 214 0
56 172 232 59 175 235 0
67 79 191 70 82 194 0
67 79 254 70 82 257 0
67 92 106 70 95 109 0
67 92 154 70 95 157 0
67 92 191 70 95 194 0
67 106 137 70 109 140 0
67 106 254 70 109 257 0
67 137 191 70 140 194 0
67 154 254 70 157 257 0
79 191 232 82 194 235 0
79 211 254 82 214 257 0
92 121 154 95 124 157 0
92 154 232 95 157 235 0
92 191 232 95 194 235 0
106 137 172 109 140 175 0
106 137 211 109 140 214 0
106 211 254 109 214 257 0
121 154 254 124 157 257 0
121 211 254 124 214 257 0
137 172 191 140 175 194 0
172 191 232 175 194 235 0
7 29 37 46 33 41 50 0
7 29 37 121 33 41 125 0
7 29 37 137 33 41 141 0
7 29 46 154 33 50 158 0
7 29 46 172 33 50 176 0
7 29 56 121 33 60 125 0
7 29 56 172 33 60 176 0
7 29 67 137 33 71 141 0
7 29 67 154 33 71 158 0
7 29 121 154 33 125 158 0
7 29 137 172 33 141 176 0
7 37 46 79 41 50 83 0
7 37 79 191 41 83 195 0
7 37 79 211 41 83 215 0
7 37 92 121 41 96 125 0
7 37 92 191 41 96 195 0
7 37 121 211 41 125 215 0
7 37 137 191 41 141 195 0
7 37 137 211 41 141 215 0
7 46 79 232 50 83 236 0
7 46 79 254 50 83 258 0
7 46 106 172 50 110 176 0
7 46 106 254 50 110 258 0
7 46 154 232 50 158 236 0
7 46 154 254 50 158 258 0
7 46 172 232 50 176 236 0
7 56 79 211 60 83 215 0
7 56 79 232 60 83 236 0
7 56 92 106 60 96 110 0
7 56 92 121 60 96 125 0
7 56 92 232 60 96 236 0
7 56 106 172 60 110 176 0
7 56 106 211 60 110 215 0
7 56 121 211 60 125 215 0
7 56 172 232 60 176 236 0
7 67 79 191 71 83 195 0
7 67 79 254 71 83 258 0
7 67 92 106 71 96 110 0
7 67 92 154 71 96 158 0
7 67 92 191 71 96 195 0
7 67 106 137 71 110 141 0
7 67 106 254 71 110 258 0
7 67 137 191 71 141 195 0
7 67 154 254 71 158 258 0
7 79 191 232 83 195 236 0
7 79 211 254 83 215 258 0
7 92 121 154 96 125 158 0
7 92 154 232 96 158 236 0
7 92 191 232 96 195 236 0
7 106 137 172 110 141 176 0
7 106 137 211 110 141 215 0
7 106 211 254 110 215 258 0
7 121 154 254 125 158 258 0
7 121 211 254 125 215 258 0
7 137 172 191 141 176 195 0
7 172 191 232 176 195 236 0
29 34 35 36 0
37 42 43 44 0
46 51 52 53 0
56 61 62 63 0
67 72 73 74 0
79 84 85 86 0
92 97 98 99 0
106 111 112 113 0
121 126 127 128 0
137 142 143 144 0
154 159 160 161 0
172 177 178 179 0
191 196 197 198 0
211 216 217 218 0
232 237 238 239 0
254 259 260 261 0
29 37 34 42 35 43 0
29 46 34 51 35 52 0
29 56 34 61 35 62 0
29 67 34 72 35 73 0
29 121 34 126 35 127 0
29 137 34 142 35 143 0
29 154 34 159 35 160 0
29 172 34 177 35 178 0
37 46 42 51 43 52 0
37 79 42 84 43 85 0
37 92 42 97 43 98 0
37 121 42 126 43 127 0
37 137 42 142 43 143 0
37 191 42 196 43 197 0
37 211 42 216 43 217 0
46 79 51 84 52 85 0
46 106 51 111 52 112 0
46 154 51 159 52 160 0
46 172 51 177 52 178 0
46 232 51 237 52 238 0
46 254 51 259 52 260 0
56 79 61 84 62 85 0
56 92 61 97 62 98 0
56 106 61 111 62 112 0
56 121 61 126 62 127 0
56 172 61 177 62 178 0
56 211 61 216 62 217 0
56 232 61 237 62 238 0
67 79 72 84 73 85 0
67 92 72 97 73 98 0
67 106 72 111 73 112 0
67 137 72 142 73 143 0
67 154 72 159 73 160 0
67 191 72 196 73 197 0
67 254 72 259 73 260 0
79 191 84 196 85 197 0
79 211 84 216 85 217 0
79 232 84 237 85 238 0
79 254 84 259 85 260 0
92 106 97 111 98 112 0
92 121 97 126 98 127 0
92 154 97 159 98 160 0
92 191 97 196 98 197 0
92 232 97 237 98 238 0
106 137 111 142 112 143 0
106 172 111 177 112 178 0
106 211 111 216 112 217 0
106 254 111 259 112 260 0
121 154 126 159 127 160 0
121 211 126 216 127 217 0
121 254 126 259 127 260 0
137 172 142 177 143 178 0
137 191 142 196 143 197 0
137 211 142 216 143 217 0
154 232 159 237 160 238 0
154 254 159 259 160 260 0
172 191 177 196 178 197 0
172 232 177 237 178 238 0
191 232 196 237 197 238 0
211 254 216 259 217 260 0
29 37 34 42 36 44 0
29 46 34 51 36 53 0
29 56 34 61 36 63 0
29 67 34 72 36 74 0
29 121 34 126 36 128 0
29 137 34 142 36 144 0
29 154 34 159 36 161 0
29 172 34 177 36 179 0
37 46 42 51 44 53 0
37 79 42 84 44 86 0
37 92 42 97 44 99 0
37 121 42 126 44 128 0
37 137 42 142 44 144 0
37 191 42 196 44 198 0
37 211 42 216 44 218 0
46 79 51 84 53 86 0
46 106 51 111 53 113 0
46 154 51 159 53 161 0
46 172 51 177 53 179 0
46 232 51 237 53 239 0
46 254 51 259 53 261 0
56 79 61 84 63 86 0
56 92 61 97 63 99 0
56 106 61 111 63 113 0
56 121 61 126 63 128 0
56 172 61 177 63 179 0
56 211 61 216 63 218 0
56 232 61 237 63 239 0
67 79 72 84 74 86 0
67 92 72 97 74 99 0
67 106 72 111 74 113 0
67 137 72 142 74 144 0
67 154 72 159 74 161 0
67 191 72 196 74 198 0
67 254 72 259 74 261 0
79 191 84 196 86 198 0
79 211 84 216 86 218 0
79 232 84 237 86 239 0
79 254 84 259 86 261 0
92 106 97 111 99 113 0
92 121 97 126 99 128 0
92 154 97 159 99 161 0
92 191 97 196 99 198 0
92 232 97 237 99 239 0
106 137 111 142 113 144 0
106 172 111 177 113 179 0
106 211 111 216 113 218 0
106 254 111 259 113 261 0
121 154 126 159 128 161 0
121 211 126 216 128 218 0
121 254 126 259 128 261 0
137 172 142 177 144 179 0
137 191 142 196 144 198 0
137 211 142 216 144 218 0
154 232 159 237 161 239 0
154 254 159 259 161 261 0
172 191 177 196 179 198 0
172 232 177 237 179 239 0
191 232 196 237 198 239 0
211 254 216 259 218 261 0
29 37 46 34 42 51 0
29 37 121 34 42 126 0
29 37 137 34 42 142 0
29 46 154 34 51 159 0
29 46 172 34 51 177 0
29 56 121 34 61 126 0
29 56 172 34 61 177 0
29 67 137 34 72 142 0
29 67 154 34 72 159 0
29 121 154 34 126 159 0
29 137 172 34 142 177 0
37 46 79 42 51 84 0
37 79 191 42 84 196 0
37 79 211 42 84 216 0
37 92 121 42 97 126 0
37 92 191 42 97 196 0
37 121 211 42 126 216 0
37 137 191 42 142 196 0
37 137 211 42 142 216 0
46 79 232 51 84 237 0
46 79 254 51 84 259 0
46 106 172 51 111 177 0
46 106 254 51 111 259 0
46 154 232 51 159 237 0
46 154 254 51 159 259 0
46 172 232 51 177 237 0
56 79 211 61 84 216 0
56 79 232 61 84 237 0
56 92 106 61 97 111 0
56 92 121 61 97 126 0
56 92 232 61 97 237 0
56 106 172 61 111 177 0
56 106 211 61 111 216 0
56 121 211 61 126 216 0
56 172 232 61 177 237 0
67 79 191 72 84 196 0
67 79 254 72 84 259 0
67 92 106 72 97 111 0
67 92 154 72 97 159 0
67 92 191 72 97 196 0
67 106 137 72 111 142 0
67 106 254 72 111 259 0
67 137 191 72 142 196 0
67 154 254 72 159 259 0
79 191 232 84 196 237 0
79 211 254 84 216 259 0
92 121 154 97 126 159 0
92 154 232 97 159 237 0
92 191 232 97 196 237 0
106 137 172 111 142 177 0
106 137 211 111 142 216 0
106 211 254 111 216 259 0
121 154 254 126 159 259 0
121 211 254 126 216 259 0
137 172 191 142 177 196 0
172 191 232 177 196 237 0
29 37 35 43 36 44 0
29 46 35 52 36 53 0
29 56 35 62 36 63 0
29 67 35 73 36 74 0
29 121 35 127 36 128 0
29 137 35 143 36 144 0
29 154 35 160 36 161 0
29 172 35 178 36 179 0
37 46 43 52 44 53 0
37 79 43 85 44 86 0
37 92 43 98 44 99 0
37 121 43 127 44 128 0
37 137 43 143 44 144 0
37 191 43 197 44 198 0
37 211 43 217 44 218 0
46 79 52 85 53 86 0
46 106 52 112 53 113 0
46 154 52 160 53 161 0
46 172 52 178 53 179 0
46 232 52 238 53 239 0
46 254 52 260 53 261 0
56 79 62 85 63 86 0
56 92 62 98 63 99 0
56 106 62 112 63 113 0
56 121 62 127 63 128 0
56 172 62 178 63 179 0
56 211 62 217 63 218 0
56 232 62 238 63 239 0
67 79 73 85 74 86 0
67 92 73 98 74 99 0
67 106 73 112 74 113 0
67 137 73 143 74 144 0
67 154 73 160 74 161 0
67 191 73 197 74 198 0
67 254 73 260 74 261 0
79 191 85 197 86 198 0
79 211 85 217 86 218 0
79 232 85 238 86 239 0
79 254 85 260 86 261 0
92 106 98 112 99 113 0
92 121 98 127 99 128 0
92 154 98 160 99 161 0
92 191 98 197 99 198 0
92 232 98 238 99 239 0
106 137 112 143 113 144 0
106 172 112 178 113 179 0
106 211 112 217 113 218 0
106 254 112 260 113 261 0
121 154 127 160 128 161 0
121 211 127 217 128 218 0
121 254 127 260 128 261 0
137 172 143 178 144 179 0
137 191 143 197 144 198 0
137 211 143 217 144 218 0
154 232 160 238 161 239 0
154 254 160 260 161 261 0
172 191 178 197 179 198 0
172 232 178 238 179 239 0
191 232 197 238 198 239 0
211 254 217 260 218 261 0
29 37 46 35 43 52 0
29 37 121 35 43 127 0
29 37 137 35 43 143 0
29 46 154 35 52 160 0
29 46 172 35 52 178 0
29 56 121 35 62 127 0
29 56 172 35 62 178 0
29 67 137 35 73 143 0
29 67 154 35 73 160 0
29 121 154 35 127 160 0
29 137 172 35 143 178 0
37 46 79 43 52 85 0
37 79 191 43 85 197 0
37 79 211 43 85 217 0
37 92 121 43 98 127 0
37 92 191 43 98 197 0
37 121 211 43 127 217 0
37 137 191 43 143 197 0
37 137 211 43 143 217 0
46 79 232 52 85 238 0
46 79 254 52 85 260 0
46 106 172 52 112 178 0
46 106 254 52 112 260 0
46 154 232 52 160 238 0
46 154 254 52 160 260 0
46 172 232 52 178 238 0
56 79 211 62 85 217 0
56 79 232 62 85 238 0
56 92 106 62 98 112 0
56 92 121 62 98 127 0
56 92 232 62 98 238 0
56 106 172 62 112 178 0
56 106 211 62 112 217 0
56 121 211 62 127 217 0
56 172 232 62 178 238 0
67 79 191 73 85 197 0
67 79 254 73 85 260 0
67 92 106 73 98 112 0
67 92 154 73 98 160 0
67 92 191 73 98 197 0
67 106 137 73 112 143 0
67 106 254 73 112 260 0
67 137 191 73 143 197 0
67 154 254 73 160 260 0
79 191 232 85 197 238 0
79 211 254 85 217 260 0
92 121 154 98 127 160 0
92 154 232 98 160 238 0
92 191 232 98 197 238 0
106 137 172 112 143 178 0
106 137 211 112 143 217 0
106 211 254 112 217 260 0
121 154 254 127 160 260 0
121 211 254 127 217 260 0
137 172 191 143 178 197 0
172 191 232 178 197 238 0
29 37 46 36 44 53 0
29 37 121 36 44 128 0
29 37 137 36 44 144 0
29 46 154 36 53 161 0
29 46 172 36 53 179 0
29 56 121 36 63 128 0
29 56 172 36 63 179 0
29 67 137 36 74 144 0
29 67 154 36 74 161 0
29 121 154 36 128 161 0
29 137 172 36 144 179 0
37 46 79 44 53 86 0
37 79 191 44 86 198 0
37 79 211 44 86 218 0
37 92 121 44 99 128 0
37 92 191 44 99 198 0
37 121 211 44 128 218 0
37 137 191 44 144 198 0
37 137 211 44 144 218 0
46 79 232 53 86 239 0
46 79 254 53 86 261 0
46 106 172 53 113 179 0
46 106 254 53 113 261 0
46 154 232 53 161 239 0
46 154 254 53 161 261 0
46 172 232 53 179 239 0
56 79 211 63 86 218 0
56 79 232 63 86 239 0
56 92 106 63 99 113 0
56 92 121 63 99 128 0
56 92 232 63 99 239 0
56 106 172 63 113 179 0
56 106 211 63 113 218 0
56 121 211 63 128 218 0
56 172 232 63 179 239 0
67 79 191 74 86 198 0
67 79 254 74 86 261 0
67 92 106 74 99 113 0
67 92 154 74 99 161 0
67 92 191 74 99 198 0
67 106 137 74 113 144 0
67 106 254 74 113 261 0
67 137 191 74 144 198 0
67 154 254 74 161 261 0
79 191 232 86 198 239 0
79 211 254 86 218 261 0
92 121 154 99 128 161 0
92 154 232 99 161 239 0
92 191 232 99 198 239 0
106 137 172 113 144 179 0
106 137 211 113 144 218 0
106 211 254 113 218 261 0
121 154 254 128 161 261 0
121 211 254 128 218 261 0
137 172 191 144 179 198 0
172 191 232 179 198 239 0
30 31 32 33 0
38 39 40 41 0
47 48 49 50 0
57 58 59 60 0
68 69 70 71 0
80 81 82 83 0
93 94 95 96 0
107 108 109 110 0
122 123 124 125 0
138 139 140 141 0
155 156 157 158 0
173 174 175 176 0
192 193 194 195 0
212 213 214 215 0
233 234 235 236 0
255 256 257 258 0
30 38 31 39 32 40 0
30 47 31 48 32 49 0
30 57 31 58 32 59 0
30 68 31 69 32 70 0
30 122 31 123 32 124 0
30 138 31 139 32 140 0
30 155 31 156 32 157 0
30 173 31 174 32 175 0
38 47 39 48 40 49 0
38 80 39 81 40 82 0
38 93 39 94 40 95 0
38 122 39 123 40 124 0
38 138 39 139 40 140 0
38 192 39 193 40 194 0
38 212 39 213 40 214 0
47 80 48 81 49 82 0
47 107 48 108 49 109 0
47 155 48 156 49 157 0
47 173 48 174 49 175 0
47 233 48 234 49 235 0
47 255 48 256 49 257 0
57 80 58 81 59 82 0
57 93 58 94 59 95 0
57 107 58 108 59 109 0
57 122 58 123 59 124 0
57 173 58 174 59 175 0
57 212 58 213 59 214 0
57 233 58 234 59 235 0
68 80 69 81 70 82 0
68 93 69 94 70 95 0
68 107 69 108 70 109 0
68 138 69 139 70 140 0
68 155 69 156 70 157 0
68 192 69 193 70 194 0
68 255 69 256 70 257 0
80 192 81 193 82 194 0
80 212 81 213 82 214 0
80 233 81 234 82 235 0
80 255 81 256 82 257 0
93 107 94 108 95 109 0
93 122 94 123 95 124 0
93 155 94 156 95 157 0
93 192 94 193 95 194 0
93 233 94 234 95 235 0
107 138 108 139 109 140 0
107 173 108 174 109 175 0
107 212 108 213 109 214 0
107 255 108 256 109 257 0
122 155 123 156 124 157 0
122 212 123 213 124 214 0
122 255 123 256 124 257 0
138 173 139 174 140 175 0
138 192 139 193 140 194 0
138 212 139 213 140 214 0
155 233 156 234 157 235 0
155 255 156 256 157 257 0
173 192 174 193 175 194 0
173 233 174 234 175 235 0
192 233 193 234 194 235 0
212 255 213 256 214 257 0
30 38 31 39 33 41 0
30 47 31 48 33 50 0
30 57 31 58 33 60 0
30 68 31 69 33 71 0
30 122 31 123 33 125 0
30 138 31 139 33 141 0
30 155 31 156 33 158 0
30 173 31 174 33 176 0
38 47 39 48 41 50 0
38 80 39 81 41 83 0
38 93 39 94 41 96 0
38 122 39 123 41 125 0
38 138 39 139 41 141 0
38 192 39 193 41 195 0
38 212 39 213 41 215 0
47 80 48 81 50 83 0
47 107 48 108 50 110 0
47 155 48 156 50 158 0
47 173 48 174 50 176 0
47 233 48 234 50 236 0
47 255 48 256 50 258 0
57 80 58 81 60 83 0
57 93 58 94 60 96 0
57 107 58 108 60 110 0
57 122 58 123 60 125 0
57 173 58 174 60 176 0
57 212 58 213 60 215 0
57 233 58 234 60 236 0
68 80 69 81 71 83 0
68 93 69 94 71 96 0
68 107 69 108 71 110 0
68 138 69 139 71 141 0
68 155 69 156 71 158 0
68 192 69 193 71 195 0
68 255 69 256 71 258 0
80 192 81 193 83 195 0
80 212 81 213 83 215 0
80 233 81 234 83 236 0
80 255 81 256 83 258 0
93 107 94 108 96 110 0
93 122 94 123 96 125 0
93 155 94 156 96 158 0
93 192 94 193 96 195 0
93 233 94 234 96 236 0
107 138 108 139 110 141 0
107 173 108 174 110 176 0
107 212 108 213 110 215 0
107 255 108 256 110 258 0
122 155 123 156 125 158 0
122 212 123 213 125 215 0
122 255 123 256 125 258 0
138 173 139 174 141 176 0
138 192 139 193 141 195 0
138 212 139 213 141 215 0
155 233 156 234 158 236 0
155 255 156 256 158 258 0
173 192 174 193 176 195 0
173 233 174 234 176 236 0
192 233 193 234 195 236 0
212 255 213 256 215 258 0
17 30 38 31 39 35 43 0
17 30 47 31 48 35 52 0
17 30 57 31 58 35 62 0
17 30 68 31 69 35 73 0
17 30 122 31 123 35 127 0
17 30 138 31 139 35 143 0
17 30 155 31 156 35 160 0
17 30 173 31 174 35 178 0
17 38 47 39 48 43 52 0
17 38 80 39 81 43 85 0
17 38 93 39 94 43 98 0
17 38 122 39 123 43 127 0
17 38 138 39 139 43 143 0
17 38 192 39 193 43 197 0
17 38 212 39 213 43 217 0
17 47 80 48 81 52 85 0
17 47 107 48 108 52 112 0
17 47 155 48 156 52 160 0
17 47 173 48 174 52 178 0
17 47 233 48 234 52 238 0
17 47 255 48 256 52 260 0
17 57 80 58 81 62 85 0
17 57 93 58 94 62 98 0
17 57 107 58 108 62 112 0
17 57 122 58 123 62 127 0
17 57 173 58 174 62 178 0
17 57 212 58 213 62 217 0
17 57 233 58 234 62 238 0
17 68 80 69 81 73 85 0
17 68 93 69 94 73 98 0
17 68 107 69 108 73 112 0
17 68 138 69 139 73 143 0
17 68 155 69 156 73 160 0
17 68 192 69 193 73 197 0
17 68 255 69 256 73 260 0
17 80 192 81 193 85 197 0
17 80 212 81 213 85 217 0
17 80 233 81 234 85 238 0
17 80 255 81 256 85 260 0
17 93 107 94 108 98 112 0
17 93 122 94 123 98 127 0
17 93 155 94 156 98 160 0
17 93 192 94 193 98 197 0
17 93 233 94 234 98 238 0
17 107 138 108 139 112 143 0
17 107 173 108 174 112 178 0
17 107 212 108 213 112 217 0
17 107 255 108 256 112 260 0
17 122 155 123 156 127 160 0
17 122 212 123 213 127 217 0
17 122 255 123 256 127 260 0
17 138 173 139 174 143 178 0
17 138 192 139 193 143 197 0
17 138 212 139 213 143 217 0
17 155 233 156 234 160 238 0
17 155 255 156 256 160 260 0
17 173 192 174 193 178 197 0
17 173 233 174 234 178 238 0
17 192 233 193 234 197 238 0
17 212 255 213 256 217 260 0
30 38 47 31 39 48 0
30 38 122 31 39 123 0
30 38 138 31 39 139 0
30 47 155 31 48 156 0
30 47 173 31 48 174 0
30 57 122 31 58 123 0
30 57 173 31 58 174 0
30 68 138 31 69 139 0
30 68 155 31 69 156 0
30 122 155 31 123 156 0
30 138 173 31 139 174 0
38 47 80 39 48 81 0
38 80 192 39 81 193 0
38 80 212 39 81 213 0
38 93 122 39 94 123 0
38 93 192 39 94 193 0
38 122 212 39 123 213 0
38 138 192 39 139 193 0
38 138 212 39 139 213 0
47 80 233 48 81 234 0
47 80 255 48 81 256 0
47 107 173 48 108 174 0
47 107 255 48 108 256 0
47 155 233 48 156 234 0
47 155 255 48 156 256 0
47 173 233 48 174 234 0
57 80 212 58 81 213 0
57 80 233 58 81 234 0
57 93 107 58 94 108 0
57 93 122 58 94 123 0
57 93 233 58 94 234 0
57 107 173 58 108 174 0
57 107 212 58 108 213 0
57 122 212 58 123 213 0
57 173 233 58 174 234 0
68 80 192 69 81 193 0
68 80 255 69 81 256 0
68 93 107 69 94 108 0
68 93 155 69 94 156 0
68 93 192 69 94 193 0
68 107 138 69 108 139 0
68 107 255 69 108 256 0
68 138 192 69 139 193 0
68 155 255 69 156 256 0
80 192 233 81 193 234 0
80 212 255 81 213 256 0
93 122 155 94 123 156 0
93 155 233 94 156 234 0
93 192 233 94 193 234 0
107 138 173 108 139 174 0
107 138 212 108 139 213 0
107 212 255 108 213 256 0
122 155 255 123 156 256 0
122 212 255 123 213 256 0
138 173 192 139 174 193 0
173 192 233 174 193 234 0
30 38 32 40 33 41 0
30 47 32 49 33 50 0
30 57 32 59 33 60 0
30 68 32 70 33 71 0
30 122 32 124 33 125 0
30 138 32 140 33 141 0
30 155 32 157 33 158 0
30 173 32 175 33 176 0
38 47 40 49 41 50 0
38 80 40 82 41 83 0
38 93 40 95 41 96 0
38 122 40 124 41 125 0
38 138 40 140 41 141 0
38 192 40 194 41 195 0
38 212 40 214 41 215 0
47 80 49 82 50 83 0
47 107 49 109 50 110 0
47 155 49 157 50 158 0
47 173 49 175 50 176 0
47 233 49 235 50 236 0
47 255 49 257 50 258 0
57 80 59 82 60 83 0
57 93 59 95 60 96 0
57 107 59 109 60 110 0
57 122 59 124 60 125 0
57 173 59 175 60 176 0
57 212 59 214 60 215 0
57 233 59 235 60 236 0
68 80 70 82 71 83 0
68 93 70 95 71 96 0
68 107 70 109 71 110 0
68 138 70 140 71 141 0
68 155 70 157 71 158 0
68 192 70 194 71 195 0
68 255 70 257 71 258 0
80 192 82 194 83 195 0
80 212 82 214 83 215 0
80 233 82 235 83 236 0
80 255 82 257 83 258 0
93 107 95 109 96 110 0
93 122 95 124 96 125 0
93 155 95 157 96 158 0
93 192 95 194 96 195 0
93 233 95 235 96 236 0
107 138 109 140 110 141 0
107 173 109 175 110 176 0
107 212 109 214 110 215 0
107 255 109 257 110 258 0
122 155 124 157 125 158 0
122 212 124 214 125 215 0
122 255 124 257 125 258 0
138 173 140 175 141 176 0
138 192 140 194 141 195 0
138 212 140 214 141 215 0
155 233 157 235 158 236 0
155 255 157 257 158 258 0
173 192 175 194 176 195 0
173 233 175 235 176 236 0
192 233 194 235 195 236 0
212 255 214 257 215 258 0
30 38 14 32 40 34 42 0
30 47 14 32 49 34 51 0
30 57 14 32 59 34 61 0
30 68 14 32 70 34 72 0
30 122 14 32 124 34 126 0
30 138 14 32 140 34 142 0
30 155 14 32 157 34 159 0
30 173 14 32 175 34 177 0
38 47 14 40 49 42 51 0
38 80 14 40 82 42 84 0
38 93 14 40 95 42 97 0
38 122 14 40 124 42 126 0
38 138 14 40 140 42 142 0
38 192 14 40 194 42 196 0
38 212 14 40 214 42 216 0
47 80 14 49 82 51 84 0
47 107 14 49 109 51 111 0
47 155 14 49 157 51 159 0
47 173 14 49 175 51 177 0
47 233 14 49 235 51 237 0
47 255 14 49 257 51 259 0
57 80 14 59 82 61 84 0
57 93 14 59 95 61 97 0
57 107 14 59 109 61 111 0
57 122 14 59 124 61 126 0
57 173 14 59 175 61 177 0
57 212 14 59 214 61 216 0
57 233 14 59 235 61 237 0
68 80 14 70 82 72 84 0
68 93 14 70 95 72 97 0
68 107 14 70 109 72 111 0
68 138 14 70 140 72 142 0
68 155 14 70 157 72 159 0
68 192 14 70 194 72 196 0
68 255 14 70 257 72 259 0
80 192 14 82 194 84 196 0
80 212 14 82 214 84 216 0
80 233 14 82 235 84 237 0
80 255 14 82 257 84 259 0
93 107 14 95 109 97 111 0
93 122 14 95 124 97 126 0
93 155 14 95 157 97 159 0
93 192 14 95 194 97 196 0
93 233 14 95 235 97 237 0
107 138 14 109 140 111 142 0
107 173 14 109 175 111 177 0
107 212 14 109 214 111 216 0
107 255 14 109 257 111 259 0
122 155 14 124 157 126 159 0
122 212 14 124 214 126 216 0
122 255 14 124 257 126 259 0
138 173 14 140 175 142 177 0
138 192 14 140 194 142 196 0
138 212 14 140 214 142 216 0
155 233 14 157 235 159 237 0
155 255 14 157 257 159 259 0
173 192 14 175 194 177 196 0
173 233 14 175 235 177 237 0
192 233 14 194 235 196 237 0
212 255 14 214 257 216 259 0
30 38 47 32 40 49 0
30 38 122 32 40 124 0
30 38 138 32 40 140 0
30 47 155 32 49 157 0
30 47 173 32 49 175 0
30 57 122 32 59 124 0
30 57 173 32 59 175 0
30 68 138 32 70 140 0
30 68 155 32 70 157 0
30 122 155 32 124 157 0
30 138 173 32 140 175 0
38 47 80 40 49 82 0
38 80 192 40 82 194 0
38 80 212 40 82 214 0
38 93 122 40 95 124 0
38 93 192 40 95 194 0
38 122 212 40 124 214 0
38 138 192 40 140 194 0
38 138 212 40 140 214 0
47 80 233 49 82 235 0
47 80 255 49 82 257 0
47 107 173 49 109 175 0
47 107 255 49 109 257 0
47 155 233 49 157 235 0
47 155 255 49 157 257 0
47 173 233 49 175 235 0
57 80 212 59 82 214 0
57 80 233 59 82 235 0
57 93 107 59 95 109 0
57 93 122 59 95 124 0
57 93 233 59 95 235 0
57 107 173 59 109 175 0
57 107 212 59 109 214 0
57 122 212 59 124 214 0
57 173 233 59 175 235 0
68 80 192 70 82 194 0
68 80 255 70 82 257 0
68 93 107 70 95 109 0
68 93 155 70 95 157 0
68 93 192 70 95 194 0
68 107 138 70 109 140 0
68 107 255 70 109 257 0
68 138 192 70 140 194 0
68 155 255 70 157 257 0
80 192 233 82 194 235 0
80 212 255 82 214 257 0
93 122 155 95 124 157 0
93 155 233 95 157 235 0
93 192 233 95 194 235 0
107 138 173 109 140 175 0
107 138 212 109 140 214 0
107 212 255 109 214 257 0
122 155 255 124 157 257 0
122 212 255 124 214 257 0
138 173 192 140 175 194 0
173 192 233 175 194 235 0
30 38 47 33 41 50 0
30 38 122 33 41 125 0
30 38 138 33 41 141 0
30 47 155 33 50 158 0
30 47 173 33 50 176 0
30 57 122 33 60 125 0
30 57 173 33 60 176 0
30 68 138 33 71 141 0
30 68 155 33 71 158 0
30 122 155 33 125 158 0
30 138 173 33 141 176 0
38 47 80 41 50 83 0
38 80 192 41 83 195 0
38 80 212 41 83 215 0
38 93 122 41 96 125 0
38 93 192 41 96 195 0
38 122 212 41 125 215 0
38 138 192 41 141 195 0
38 138 212 41 141 215 0
47 80 233 50 83 236 0
47 80 255 50 83 258 0
47 107 173 50 110 176 0
47 107 255 50 110 258 0
47 155 233 50 158 236 0
47 155 255 50 158 258 0
47 173 233 50 176 236 0
57 80 212 60 83 215 0
57 80 233 60 83 236 0
57 93 107 60 96 110 0
57 93 122 60 96 125 0
57 93 233 60 96 236 0
57 107 173 60 110 176 0
57 107 212 60 110 215 0
57 122 212 60 125 215 0
57 173 233 60 176 236 0
68 80 192 71 83 195 0
68 80 255 71 83 258 0
68 93 107 71 96 110 0
68 93 155 71 96 158 0
68 93 192 71 96 195 0
68 107 138 71 110 141 0
68 107 255 71 110 258 0
68 138 192 71 141 195 0
68 155 255 71 158 258 0
80 192 233 83 195 236 0
80 212 255 83 215 258 0
93 122 155 96 125 158 0
93 155 233 96 158 236 0
93 192 233 96 195 236 0
107 138 173 110 141 176 0
107 138 212 110 141 215 0
107 212 255 110 215 258 0
122 155 255 125 158 258 0
122 212 255 125 215 258 0
138 173 192 141 176 195 0
173 192 233 176 195 236 0
17 30 38 34 42 35 43 0
17 30 47 34 51 35 52 0
17 30 57 34 61 35 62 0
17 30 68 34 72 35 73 0
17 30 122 34 126 35 127 0
17 30 138 34 142 35 143 0
17 30 155 34 159 35 160 0
17 30 173 34 177 35 178 0
17 38 47 42 51 43 52 0
17 38 80 42 84 43 85 0
17 38 93 42 97 43 98 0
17 38 122 42 126 43 127 0
17 38 138 42 142 43 143 0
17 38 192 42 196 43 197 0
17 38 212 42 216 43 217 0
17 47 80 51 84 52 85 0
17 47 107 51 111 52 112 0
17 47 155 51 159 52 160 0
17 47 173 51 177 52 178 0
17 47 233 51 237 52 238 0
17 47 255 51 259 52 260 0
17 57 80 61 84 62 85 0
17 57 93 61 97 62 98 0
17 57 107 61 111 62 112 0
17 57 122 61 126 62 127 0
17 57 173 61 177 62 178 0
17 57 212 61 216 62 217 0
17 57 233 61 237 62 238 0
17 68 80 72 84 73 85 0
17 68 93 72 97 73 98 0
17 68 107 72 111 73 112 0
17 68 138 72 142 73 143 0
17 68 155 72 159 73 160 0
17 68 192 72 196 73 197 0
17 68 255 72 259 73 260 0
17 80 192 84 196 85 197 0
17 80 212 84 216 85 217 0
17 80 233 84 237 85 238 0
17 80 255 84 259 85 260 0
17 93 107 97 111 98 112 0
17 93 122 97 126 98 127 0
17 93 155 97 159 98 160 0
17 93 192 97 196 98 197 0
17 93 233 97 237 98 238 0
17 107 138 111 142 112 143 0
17 107 173 111 177 112 178 0
17 107 212 111 216 112 217 0
17 107 255 111 259 112 260 0
17 122 155 126 159 127 160 0
17 122 212 126 216 127 217 0
17 122 255 126 259 127 260 0
17 138 173 142 177 143 178 0
17 138 192 142 196 143 197 0
17 138 212 142 216 143 217 0
17 155 233 159 237 160 238 0
17 155 255 159 259 160 260 0
17 173 192 177 196 178 197 0
17 173 233 177 237 178 238 0
17 192 233 196 237 197 238 0
17 212 255 216 259 217 260 0
30 38 47 34 42 51 0
30 38 122 34 42 126 0
30 38 138 34 42 142 0
30 47 155 34 51 159 0
30 47 173 34 51 177 0
30 57 122 34 61 126 0
30 57 173 34 61 177 0
30 68 138 34 72 142 0
30 68 155 34 72 159 0
30 122 155 34 126 159 0
30 138 173 34 142 177 0
38 47 80 42 51 84 0
38 80 192 42 84 196 0
38 80 212 42 84 216 0
38 93 122 42 97 126 0
38 93 192 42 97 196 0
38 122 212 42 126 216 0
38 138 192 42 142 196 0
38 138 212 42 142 216 0
47 80 233 51 84 237 0
47 80 255 51 84 259 0
47 107 173 51 111 177 0
47 107 255 51 111 259 0
47 155 233 51 159 237 0
47 155 255 51 159 259 0
47 173 233 51 177 237 0
57 80 212 61 84 216 0
57 80 233 61 84 237 0
57 93 107 61 97 111 0
57 93 122 61 97 126 0
57 93 233 61 97 237 0
57 107 173 61 111 177 0
57 107 212 61 111 216 0
57 122 212 61 126 216 0
57 173 233 61 177 237 0
68 80 192 72 84 196 0
68 80 255 72 84 259 0
68 93 107 72 97 111 0
68 93 155 72 97 159 0
68 93 192 72 97 196 0
68 107 138 72 111 142 0
68 107 255 72 111 259 0
68 138 192 72 142 196 0
68 155 255 72 159 259 0
80 192 233 84 196 237 0
80 212 255 84 216 259 0
93 122 155 97 126 159 0
93 155 233 97 159 237 0
93 192 233 97 196 237 0
107 138 173 111 142 177 0
107 138 212 111 142 216 0
107 212 255 111 216 259 0
122 155 255 126 159 259 0
122 212 255 126 216 259 0
138 173 192 142 177 196 0
173 192 233 177 196 237 0
17 30 38 47 35 43 52 0
17 30 38 122 35 43 127 0
17 30 38 138 35 43 143 0
17 30 47 155 35 52 160 0
17 30 47 173 35 52 178 0
17 30 57 122 35 62 127 0
17 30 57 173 35 62 178 0
17 30 68 138 35 73 143 0
17 30 68 155 35 73 160 0
17 30 122 155 35 127 160 0
17 30 138 173 35 143 178 0
17 38 47 80 43 52 85 0
17 38 80 192 43 85 197 0
17 38 80 212 43 85 217 0
17 38 93 122 43 98 127 0
17 38 93 192 43 98 197 0
17 38 122 212 43 127 217 0
17 38 138 192 43 143 197 0
17 38 138 212 43 143 217 0
17 47 80 233 52 85 238 0
17 47 80 255 52 85 260 0
17 47 107 173 52 112 178 0
17 47 107 255 52 112 260 0
17 47 155 233 52 160 238 0
17 47 155 255 52 160 260 0
17 47 173 233 52 178 238 0
17 57 80 212 62 85 217 0
17 57 80 233 62 85 238 0
17 57 93 107 62 98 112 0
17 57 93 122 62 98 127 0
17 57 93 233 62 98 238 0
17 57 107 173 62 112 178 0
17 57 107 212 62 112 217 0
17 57 122 212 62 127 217 0
17 57 173 233 62 178 238 0
17 68 80 192 73 85 197 0
17 68 80 255 73 85 260 0
17 68 93 107 73 98 112 0
17 68 93 155 73 98 160 0
17 68 93 192 73 98 197 0
17 68 107 138 73 112 143 0
17 68 107 255 73 112 260 0
17 68 138 192 73 143 197 0
17 68 155 255 73 160 260 0
17 80 192 233 85 197 238 0
17 80 212 255 85 217 260 0
17 93 122 155 98 127 160 0
17 93 155 233 98 160 238 0
17 93 192 233 98 197 238 0
17 107 138 173 112 143 178 0
17 107 138 212 112 143 217 0
17 107 212 255 112 217 260 0
17 122 155 255 127 160 260 0
17 122 212 255 127 217 260 0
17 138 173 192 143 178 197 0
17 173 192 233 178 197 238 0
31 39 32 40 33 41 0
31 48 32 49 33 50 0
31 58 32 59 33 60 0
31 69 32 70 33 71 0
31 123 32 124 33 125 0
31 139 32 140 33 141 0
31 156 32 157 33 158 0
31 174 32 175 33 176 0
39 48 40 49 41 50 0
39 81 40 82 41 83 0
39 94 40 95 41 96 0
39 123 40 124 41 125 0
39 139 40 140 41 141 0
39 193 40 194 41 195 0
39 213 40 214 41 215 0
48 81 49 82 50 83 0
48 108 49 109 50 110 0
48 156 49 157 50 158 0
48 174 49 175 50 176 0
48 234 49 235 50 236 0
48 256 49 257 50 258 0
58 81 59 82 60 83 0
58 94 59 95 60 96 0
58 108 59 109 60 110 0
58 123 59 124 60 125 0
58 174 59 175 60 176 0
58 213 59 214 60 215 0
58 234 59 235 60 236 0
69 81 70 82 71 83 0
69 94 70 95 71 96 0
69 108 70 109 71 110 0
69 139 70 140 71 141 0
69 156 70 157 71 158 0
69 193 70 194 71 195 0
69 256 70 257 71 258 0
81 193 82 194 83 195 0
81 213 82 214 83 215 0
81 234 82 235 83 236 0
81 256 82 257 83 258 0
94 108 95 109 96 110 0
94 123 95 124 96 125 0
94 156 95 157 96 158 0
94 193 95 194 96 195 0
94 234 95 235 96 236 0
108 139 109 140 110 141 0
108 174 109 175 110 176 0
108 213 109 214 110 215 0
108 256 109 257 110 258 0
123 156 124 157 125 158 0
123 213 124 214 125 215 0
123 256 124 257 125 258 0
139 174 140 175 141 176 0
139 193 140 194 141 195 0
139 213 140 214 141 215 0
156 234 157 235 158 236 0
156 256 157 257 158 258 0
174 193 175 194 176 195 0
174 234 175 235 176 236 0
193 234 194 235 195 236 0
213 256 214 257 215 258 0
31 39 48 32 40 49 0
31 39 123 32 40 124 0
31 39 139 32 40 140 0
31 48 156 32 49 157 0
31 48 174 32 49 175 0
31 58 123 32 59 124 0
31 58 174 32 59 175 0
31 69 139 32 70 140 0
31 69 156 32 70 157 0
31 123 156 32 124 157 0
31 139 174 32 140 175 0
39 48 81 40 49 82 0
39 81 193 40 82 194 0
39 81 213 40 82 214 0
39 94 123 40 95 124 0
39 94 193 40 95 194 0
39 123 213 40 124 214 0
39 139 193 40 140 194 0
39 139 213 40 140 214 0
48 81 234 49 82 235 0
48 81 256 49 82 257 0
48 108 174 49 109 175 0
48 108 256 49 109 257 0
48 156 234 49 157 235 0
48 156 256 49 157 257 0
48 174 234 49 175 235 0
58 81 213 59 82 214 0
58 81 234 59 82 235 0
58 94 108 59 95 109 0
58 94 123 59 95 124 0
58 94 234 59 95 235 0
58 108 174 59 109 175 0
58 108 213 59 109 214 0
58 123 213 59 124 214 0
58 174 234 59 175 235 0
69 81 193 70 82 194 0
69 81 256 70 82 257 0
69 94 108 70 95 109 0
69 94 156 70 95 157 0
69 94 193 70 95 194 0
69 108 139 70 109 140 0
69 108 256 70 109 257 0
69 139 193 70 140 194 0
69 156 256 70 157 257 0
81 193 234 82 194 235 0
81 213 256 82 214 257 0
94 123 156 95 124 157 0
94 156 234 95 157 235 0
94 193 234 95 194 235 0
108 139 174 109 140 175 0
108 139 213 109 140 214 0
108 213 256 109 214 257 0
123 156 256 124 157 257 0
123 213 256 124 214 257 0
139 174 193 140 175 194 0
174 193 234 175 194 235 0
31 39 48 33 41 50 0
31 39 123 33 41 125 0
31 39 139 33 41 141 0
31 48 156 33 50 158 0
31 48 174 33 50 176 0
31 58 123 33 60 125 0
31 58 174 33 60 176 0
31 69 139 33 71 141 0
31 69 156 33 71 158 0
31 123 156 33 125 158 0
31 139 174 33 141 176 0
39 48 81 41 50 83 0
39 81 193 41 83 195 0
39 81 213 41 83 215 0
39 94 123 41 96 125 0
39 94 193 41 96 195 0
39 123 213 41 125 215 0
39 139 193 41 141 195 0
39 139 213 41 141 215 0
48 81 234 50 83 236 0
48 81 256 50 83 258 0
48 108 174 50 110 176 0
48 108 256 50 110 258 0
48 156 234 50 158 236 0
48 156 256 50 158 258 0
48 174 234 50 176 236 0
58 81 213 60 83 215 0
58 81 234 60 83 236 0
58 94 108 60 96 110 0
58 94 123 60 96 125 0
58 94 234 60 96 236 0
58 108 174 60 110 176 0
58 108 213 60 110 215 0
58 123 213 60 125 215 0
58 174 234 60 176 236 0
69 81 193 71 83 195 0
69 81 256 71 83 258 0
69 94 108 71 96 110 0
69 94 156 71 96 158 0
69 94 193 71 96 195 0
69 108 139 71 110 141 0
69 108 256 71 110 258 0
69 139 193 71 141 195 0
69 156 256 71 158 258 0
81 193 234 83 195 236 0
81 213 256 83 215 258 0
94 123 156 96 125 158 0
94 156 234 96 158 236 0
94 193 234 96 195 236 0
108 139 174 110 141 176 0
108 139 213 110 141 215 0
108 213 256 110 215 258 0
123 156 256 125 158 258 0
123 213 256 125 215 258 0
139 174 193 141 176 195 0
174 193 234 176 195 236 0
31 39 35 43 36 44 0
31 48 35 52 36 53 0
31 58 35 62 36 63 0
31 69 35 73 36 74 0
31 123 35 127 36 128 0
31 139 35 143 36 144 0
31 156 35 160 36 161 0
31 174 35 178 36 179 0
39 48 43 52 44 53 0
39 81 43 85 44 86 0
39 94 43 98 44 99 0
39 123 43 127 44 128 0
39 139 43 143 44 144 0
39 193 43 197 44 198 0
39 213 43 217 44 218 0
48 81 52 85 53 86 0
48 108 52 112 53 113 0
48 156 52 160 53 161 0
48 174 52 178 53 179 0
48 234 52 238 53 239 0
48 256 52 260 53 261 0
58 81 62 85 63 86 0
58 94 62 98 63 99 0
58 108 62 112 63 113 0
58 123 62 127 63 128 0
58 174 62 178 63 179 0
58 213 62 217 63 218 0
58 234 62 238 63 239 0
69 81 73 85 74 86 0
69 94 73 98 74 99 0
69 108 73 112 74 113 0
69 139 73 143 74 144 0
69 156 73 160 74 161 0
69 193 73 197 74 198 0
69 256 73 260 74 261 0
81 193 85 197 86 198 0
81 213 85 217 86 218 0
81 234 85 238 86 239 0
81 256 85 260 86 261 0
94 108 98 112 99 113 0
94 123 98 127 99 128 0
94 156 98 160 99 161 0
94 193 98 197 99 198 0
94 234 98 238 99 239 0
108 139 112 143 113 144 0
108 174 112 178 113 179 0
108 213 112 217 113 218 0
108 256 112 260 113 261 0
123 156 127 160 128 161 0
123 213 127 217 128 218 0
123 256 127 260 128 261 0
139 174 143 178 144 179 0
139 193 143 197 144 198 0
139 213 143 217 144 218 0
156 234 160 238 161 239 0
156 256 160 260 161 261 0
174 193 178 197 179 198 0
174 234 178 238 179 239 0
193 234 197 238 198 239 0
213 256 217 260 218 261 0
31 39 48 35 43 52 0
31 39 123 35 43 127 0
31 39 139 35 43 143 0
31 48 156 35 52 160 0
31 48 174 35 52 178 0
31 58 123 35 62 127 0
31 58 174 35 62 178 0
31 69 139 35 73 143 0
31 69 156 35 73 160 0
31 123 156 35 127 160 0
31 139 174 35 143 178 0
39 48 81 43 52 85 0
39 81 193 43 85 197 0
39 81 213 43 85 217 0
39 94 123 43 98 127 0
39 94 193 43 98 197 0
39 123 213 43 127 217 0
39 139 193 43 143 197 0
39 139 213 43 143 217 0
48 81 234 52 85 238 0
48 81 256 52 85 260 0
48 108 174 52 112 178 0
48 108 256 52 112 260 0
48 156 234 52 160 238 0
48 156 256 52 160 260 0
48 174 234 52 178 238 0
58 81 213 62 85 217 0
58 81 234 62 85 238 0
58 94 108 62 98 112 0
58 94 123 62 98 127 0
58 94 234 62 98 238 0
58 108 174 62 112 178 0
58 108 213 62 112 217 0
58 123 213 62 127 217 0
58 174 234 62 178 238 0
69 81 193 73 85 197 0
69 81 256 73 85 260 0
69 94 108 73 98 112 0
69 94 156 73 98 160 0
69 94 193 73 98 197 0
69 108 139 73 112 143 0
69 108 256 73 112 260 0
69 139 193 73 143 197 0
69 156 256 73 160 260 0
81 193 234 85 197 238 0
81 213 256 85 217 260 0
94 123 156 98 127 160 0
94 156 234 98 160 238 0
94 193 234 98 197 238 0
108 139 174 112 143 178 0
108 139 213 112 143 217 0
108 213 256 112 217 260 0
123 156 256 127 160 260 0
123 213 256 127 217 260 0
139 174 193 143 178 197 0
174 193 234 178 197 238 0
31 39 48 36 44 53 0
31 39 123 36 44 128 0
31 39 139 36 44 144 0
31 48 156 36 53 161 0
31 48 174 36 53 179 0
31 58 123 36 63 128 0
31 58 174 36 63 179 0
31 69 139 36 74 144 0
31 69 156 36 74 161 0
31 123 156 36 128 161 0
31 139 174 36 144 179 0
39 48 81 44 53 86 0
39 81 193 44 86 198 0
39 81 213 44 86 218 0
39 94 123 44 99 128 0
39 94 193 44 99 198 0
39 123 213 44 128 218 0
39 139 193 44 144 198 0
39 139 213 44 144 218 0
48 81 234 53 86 239 0
48 81 256 53 86 261 0
48 108 174 53 113 179 0
48 108 256 53 113 261 0
48 156 234 53 161 239 0
48 156 256 53 161 261 0
48 174 234 53 179 239 0
58 81 213 63 86 218 0
58 81 234 63 86 239 0
58 94 108 63 99 113 0
58 94 123 63 99 128 0
58 94 234 63 99 239 0
58 108 174 63 113 179 0
58 108 213 63 113 218 0
58 123 213 63 128 218 0
58 174 234 63 179 239 0
69 81 193 74 86 198 0
69 81 256 74 86 261 0
69 94 108 74 99 113 0
69 94 156 74 99 161 0
69 94 193 74 99 198 0
69 108 139 74 113 144 0
69 108 256 74 113 261 0
69 139 193 74 144 198 0
69 156 256 74 161 261 0
81 193 234 86 198 239 0
81 213 256 86 218 261 0
94 123 156 99 128 161 0
94 156 234 99 161 239 0
94 193 234 99 198 239 0
108 139 174 113 144 179 0
108 139 213 113 144 218 0
108 213 256 113 218 261 0
123 156 256 128 161 261 0
123 213 256 128 218 261 0
139 174 193 144 179 198 0
174 193 234 179 198 239 0
32 40 49 33 41 50 0
32 40 124 33 41 125 0
32 40 140 33 41 141 0
32 49 157 33 50 158 0
32 49 175 33 50 176 0
32 59 124 33 60 125 0
32 59 175 33 60 176 0
32 70 140 33 71 141 0
32 70 157 33 71 158 0
32 124 157 33 125 158 0
32 140 175 33 141 176 0
40 49 82 41 50 83 0
40 82 194 41 83 195 0
40 82 214 41 83 215 0
40 95 124 41 96 125 0
40 95 194 41 96 195 0
40 124 214 41 125 215 0
40 140 194 41 141 195 0
40 140 214 41 141 215 0
49 82 235 50 83 236 0
49 82 257 50 83 258 0
49 109 175 50 110 176 0
49 109 257 50 110 258 0
49 157 235 50 158 236 0
49 157 257 50 158 258 0
49 175 235 50 176 236 0
59 82 214 60 83 215 0
59 82 235 60 83 236 0
59 95 109 60 96 110 0
59 95 124 60 96 125 0
59 95 235 60 96 236 0
59 109 175 60 110 176 0
59 109 214 60 110 215 0
59 124 214 60 125 215 0
59 175 235 60 176 236 0
70 82 194 71 83 195 0
70 82 257 71 83 258 0
70 95 109 71 96 110 0
70 95 157 71 96 158 0
70 95 194 71 96 195 0
70 109 140 71 110 141 0
70 109 257 71 110 258 0
70 140 194 71 141 195 0
70 157 257 71 158 258 0
82 194 235 83 195 236 0
82 214 257 83 215 258 0
95 124 157 96 125 158 0
95 157 235 96 158 236 0
95 194 235 96 195 236 0
109 140 175 110 141 176 0
109 140 214 110 141 215 0
109 214 257 110 215 258 0
124 157 257 125 158 258 0
124 214 257 125 215 258 0
140 175 194 141 176 195 0
175 194 235 176 195 236 0
14 32 40 49 34 42 51 0
14 32 40 124 34 42 126 0
14 32 40 140 34 42 142 0
14 32 49 157 34 51 159 0
14 32 49 175 34 51 177 0
14 32 59 124 34 61 126 0
14 32 59 175 34 61 177 0
14 32 70 140 34 72 142 0
14 32 70 157 34 72 159 0
14 32 124 157 34 126 159 0
14 32 140 175 34 142 177 0
14 40 49 82 42 51 84 0
14 40 82 194 42 84 196 0
14 40 82 214 42 84 216 0
14 40 95 124 42 97 126 0
14 40 95 194 42 97 196 0
14 40 124 214 42 126 216 0
14 40 140 194 42 142 196 0
14 40 140 214 42 142 216 0
14 49 82 235 51 84 237 0
14 49 82 257 51 84 259 0
14 49 109 175 51 111 177 0
14 49 109 257 51 111 259 0
14 49 157 235 51 159 237 0
14 49 157 257 51 159 259 0
14 49 175 235 51 177 237 0
14 59 82 214 61 84 216 0
14 59 82 235 61 84 237 0
14 59 95 109 61 97 111 0
14 59 95 124 61 97 126 0
14 59 95 235 61 97 237 0
14 59 109 175 61 111 177 0
14 59 109 214 61 111 216 0
14 59 124 214 61 126 216 0
14 59 175 235 61 177 237 0
14 70 82 194 72 84 196 0
14 70 82 257 72 84 259 0
14 70 95 109 72 97 111 0
14 70 95 157 72 97 159 0
14 70 95 194 72 97 196 0
14 70 109 140 72 111 142 0
14 70 109 257 72 111 259 0
14 70 140 194 72 142 196 0
14 70 157 257 72 159 259 0
14 82 194 235 84 196 237 0
14 82 214 257 84 216 259 0
14 95 124 157 97 126 159 0
14 95 157 235 97 159 237 0
14 95 194 235 97 196 237 0
14 109 140 175 111 142 177 0
14 109 140 214 111 142 216 0
14 109 214 257 111 216 259 0
14 124 157 257 126 159 259 0
14 124 214 257 126 216 259 0
14 140 175 194 142 177 196 0
14 175 194 235 177 196 237 0
34 42 35 43 36 44 0
34 51 35 52 36 53 0
34 61 35 62 36 63 0
34 72 35 73 36 74 0
34 126 35 127 36 128 0
34 142 35 143 36 144 0
34 159 35 160 36 161 0
34 177 35 178 36 179 0
42 51 43 52 44 53 0
42 84 43 85 44 86 0
42 97 43 98 44 99 0
42 126 43 127 44 128 0
42 142 43 143 44 144 0
42 196 43 197 44 198 0
42 216 43 217 44 218 0
51 84 52 85 53 86 0
51 111 52 112 53 113 0
51 159 52 160 53 161 0
51 177 52 178 53 179 0
51 237 52 238 53 239 0
51 259 52 260 53 261 0
61 84 62 85 63 86 0
61 97 62 98 63 99 0
61 111 62 112 63 113 0
61 126 62 127 63 128 0
61 177 62 178 63 179 0
61 216 62 217 63 218 0
61 237 62 238 63 239 0
72 84 73 85 74 86 0
72 97 73 98 74 99 0
72 111 73 112 74 113 0
72 142 73 143 74 144 0
72 159 73 160 74 161 0
72 196 73 197 74 198 0
72 259 73 260 74 261 0
84 196 85 197 86 198 0
84 216 85 217 86 218 0
84 237 85 238 86 239 0
84 259 85 260 86 261 0
97 111 98 112 99 113 0
97 126 98 127 99 128 0
97 159 98 160 99 161 0
97 196 98 197 99 198 0
97 237 98 238 99 239 0
111 142 112 143 113 144 0
111 177 112 178 113 179 0
111 216 112 217 113 218 0
111 259 112 260 113 261 0
126 159 127 160 128 161 0
126 216 127 217 128 218 0
126 259 127 260 128 261 0
142 177 143 178 144 179 0
142 196 143 197 144 198 0
142 216 143 217 144 218 0
159 237 160 238 161 239 0
159 259 160 260 161 261 0
177 196 178 197 179 198 0
177 237 178 238 179 239 0
196 237 197 238 198 239 0
216 259 217 260 218 261 0
34 42 51 35 43 52 0
34 42 126 35 43 127 0
34 42 142 35 43 143 0
34 51 159 35 52 160 0
34 51 177 35 52 178 0
34 61 126 35 62 127 0
34 61 177 35 62 178 0
34 72 142 35 73 143 0
34 72 159 35 73 160 0
34 126 159 35 127 160 0
34 142 177 35 143 178 0
42 51 84 43 52 85 0
42 84 196 43 85 197 0
42 84 216 43 85 217 0
42 97 126 43 98 127 0
42 97 196 43 98 197 0
42 126 216 43 127 217 0
42 142 196 43 143 197 0
42 142 216 43 143 217 0
51 84 237 52 85 238 0
51 84 259 52 85 260 0
51 111 177 52 112 178 0
51 111 259 52 112 260 0
51 159 237 52 160 238 0
51 159 259 52 160 260 0
51 177 237 52 178 238 0
61 84 216 62 85 217 0
61 84 237 62 85 238 0
61 97 111 62 98 112 0
61 97 126 62 98 127 0
61 97 237 62 98 238 0
61 111 177 62 112 178 0
61 111 216 62 112 217 0
61 126 216 62 127 217 0
61 177 237 62 178 238 0
72 84 196 73 85 197 0
72 84 259 73 85 260 0
72 97 111 73 98 112 0
72 97 159 73 98 160 0
72 97 196 73 98 197 0
72 111 142 73 112 143 0
72 111 259 73 112 260 0
72 142 196 73 143 197 0
72 159 259 73 160 260 0
84 196 237 85 197 238 0
84 216 259 85 217 260 0
97 126 159 98 127 160 0
97 159 237 98 160 238 0
97 196 237 98 197 238 0
111 142 177 112 143 178 0
111 142 216 112 143 217 0
111 216 259 112 217 260 0
126 159 259 127 160 260 0
126 216 259 127 217 260 0
142 177 196 143 178 197 0
177 196 237 178 197 238 0
34 42 51 36 44 53 0
34 42 126 36 44 128 0
34 42 142 36 44 144 0
34 51 159 36 53 161 0
34 51 177 36 53 179 0
34 61 126 36 63 128 0
34 61 177 36 63 179 0
34 72 142 36 74 144 0
34 72 159 36 74 161 0
34 126 159 36 128 161 0
34 142 177 36 144 179 0
42 51 84 44 53 86 0
42 84 196 44 86 198 0
42 84 216 44 86 218 0
42 97 126 44 99 128 0
42 97 196 44 99 198 0
42 126 216 44 128 218 0
42 142 196 44 144 198 0
42 142 216 44 144 218 0
51 84 237 53 86 239 0
51 84 259 53 86 261 0
51 111 177 53 113 179 0
51 111 259 53 113 261 0
51 159 237 53 161 239 0
51 159 259 53 161 261 0
51 177 237 53 179 239 0
61 84 216 63 86 218 0
61 84 237 63 86 239 0
61 97 111 63 99 113 0
61 97 126 63 99 128 0
61 97 237 63 99 239 0
61 111 177 63 113 179 0
61 111 216 63 113 218 0
61 126 216 63 128 218 0
61 177 237 63 179 239 0
72 84 196 74 86 198 0
72 84 259 74 86 261 0
72 97 111 74 99 113 0
72 97 159 74 99 161 0
72 97 196 74 99 198 0
72 111 142 74 113 144 0
72 111 259 74 113 261 0
72 142 196 74 144 198 0
72 159 259 74 161 261 0
84 196 237 86 198 239 0
84 216 259 86 218 261 0
97 126 159 99 128 161 0
97 159 237 99 161 239 0
97 196 237 99 198 239 0
111 142 177 113 144 179 0
111 142 216 113 144 218 0
111 216 259 113 218 261 0
126 159 259 128 161 261 0
126 216 259 128 218 261 0
142 177 196 144 179 198 0
177 196 237 179 198 239 0
35 43 52 36 44 53 0
35 43 127 36 44 128 0
35 43 143 36 44 144 0
35 52 160 36 53 161 0
35 52 178 36 53 179 0
35 62 127 36 63 128 0
35 62 178 36 63 179 0
35 73 143 36 74 144 0
35 73 160 36 74 161 0
35 127 160 36 128 161 0
35 143 178 36 144 179 0
43 52 85 44 53 86 0
43 85 197 44 86 198 0
43 85 217 44 86 218 0
43 98 127 44 99 128 0
43 98 197 44 99 198 0
43 127 217 44 128 218 0
43 143 197 44 144 198 0
43 143 217 44 144 218 0
52 85 238 53 86 239 0
52 85 260 53 86 261 0
52 112 178 53 113 179 0
52 112 260 53 113 261 0
52 160 238 53 161 239 0
52 160 260 53 161 261 0
52 178 238 53 179 239 0
62 85 217 63 86 218 0
62 85 238 63 86 239 0
62 98 112 63 99 113 0
62 98 127 63 99 128 0
62 98 238 63 99 239 0
62 112 178 63 113 179 0
62 112 217 63 113 218 0
62 127 217 63 128 218 0
62 178 238 63 179 239 0
73 85 197 74 86 198 0
73 85 260 74 86 261 0
73 98 112 74 99 113 0
73 98 160 74 99 161 0
73 98 197 74 99 198 0
73 112 143 74 113 144 0
73 112 260 74 113 261 0
73 143 197 74 144 198 0
73 160 260 74 161 261 0
85 197 238 86 198 239 0
85 217 260 86 218 261 0
98 127 160 99 128 161 0
98 160 238 99 161 239 0
98 197 238 99 198 239 0
112 143 178 113 144 179 0
112 143 217 113 144 218 0
112 217 260 113 218 261 0
127 160 260 128 161 261 0
127 217 260 128 218 261 0
143 178 197 144 179 198 0
178 197 238 179 198 239 0
