p cnf 276 3848
-29 -79 -34 -84 0
-29 -92 -34 -97 0
-29 -106 -34 -111 0
-29 -191 -34 -196 0
-29 -211 -34 -216 0
-29 -232 -34 -237 0
-29 -254 -34 -259 0
-37 -56 -42 -61 0
-37 -92 -42 -97 0
-37 -106 -42 -111 0
-37 -137 -42 -142 0
-37 -154 -42 -159 0
-37 -172 -42 -177 0
-37 -211 -42 -216 0
-46 -67 -51 -72 0
-46 -79 -51 -84 0
-46 -106 -51 -111 0
-46 -121 -51 -126 0
-46 -137 -51 -142 0
-46 -172 -51 -177 0
-46 -254 -51 -259 0
-56 -67 -61 -72 0
-56 -79 -61 -84 0
-56 -154 -61 -159 0
-56 -172 -61 -177 0
-56 -191 -61 -196 0
-56 -232 -61 -237 0
-67 -92 -72 -97 0
-67 -121 -72 -126 0
-67 -154 -72 -159 0
-67 -232 -72 -237 0
-67 -254 -72 -259 0
-79 -121 -84 -126 0
-79 -172 -84 -177 0
-79 -191 -84 -196 0
-79 -211 -84 -216 0
-92 -121 -97 -126 0
-92 -137 -97 -142 0
-92 -211 -97 -216 0
-92 -232 -97 -237 0
-106 -137 -111 -142 0
-106 -154 -111 -159 0
-106 -191 -111 -196 0
-106 -254 -111 -259 0
-121 -137 -126 -142 0
-121 -154 -126 -159 0
-121 -191 -126 -196 0
-121 -211 -126 -216 0
-137 -172 -142 -177 0
-137 -191 -142 -196 0
-137 -232 -142 -237 0
-154 -191 -159 -196 0
-154 -211 -159 -216 0
-154 -254 -159 -259 0
-172 -211 -177 -216 0
-172 -232 -177 -237 0
-172 -254 -177 -259 0
-191 -232 -196 -237 0
-211 -254 -216 -259 0
-232 -254 -237 -259 0
-29 -79 -191 0
-29 -79 -211 0
-29 -92 -211 0
-29 -92 -232 0
-29 -106 -191 0
-29 -106 -254 0
-29 -191 -232 0
-29 -211 -254 0
-29 -232 -254 0
-37 -56 -154 0
-37 -56 -172 0
-37 -92 -137 0
-37 -92 -211 0
-37 -106 -137 0
-37 -106 -154 0
-37 -137 -172 0
-37 -154 -211 0
-37 -172 -211 0
-46 -67 -121 0
-46 -67 -254 0
-46 -79 -121 0
-46 -79 -172 0
-46 -106 -137 0
-46 -106 -254 0
-46 -121 -137 0
-46 -137 -172 0
-46 -172 -254 0
-56 -67 -154 0
-56 -67 -232 0
-56 -79 -172 0
-56 -79 -191 0
-56 -154 -191 0
-56 -172 -232 0
-56 -191 -232 0
-67 -92 -121 0
-67 -92 -232 0
-67 -121 -154 0
-67 -154 -254 0
-67 -232 -254 0
-79 -121 -191 0
-79 -121 -211 0
-79 -172 -211 0
-92 -121 -137 0
-92 -121 -211 0
-92 -137 -232 0
-106 -137 -191 0
-106 -154 -191 0
-106 -154 -254 0
-121 -137 -191 0
-121 -154 -191 0
-121 -154 -211 0
-137 -172 -232 0
-137 -191 -232 0
-154 -211 -254 0
-172 -211 -254 0
-172 -232 -254 0
-30 -80 -35 -85 0
-30 -93 -35 -98 0
-30 -107 -35 -112 0
-30 -192 -35 -197 0
-30 -212 -35 -217 0
-30 -233 -35 -238 0
-30 -255 -35 -260 0
-38 -57 -43 -62 0
-38 -93 -43 -98 0
-38 -107 -43 -112 0
-38 -138 -43 -143 0
-38 -155 -43 -160 0
-38 -173 -43 -178 0
-38 -212 -43 -217 0
-47 -68 -52 -73 0
-47 -80 -52 -85 0
-47 -107 -52 -112 0
-47 -122 -52 -127 0
-47 -138 -52 -143 0
-47 -173 -52 -178 0
-47 -255 -52 -260 0
-57 -68 -62 -73 0
-57 -80 -62 -85 0
-57 -155 -62 -160 0
-57 -173 -62 -178 0
-57 -192 -62 -197 0
-57 -233 -62 -238 0
-68 -93 -73 -98 0
-68 -122 -73 -127 0
-68 -155 -73 -160 0
-68 -233 -73 -238 0
-68 -255 -73 -260 0
-80 -122 -85 -127 0
-80 -173 -85 -178 0
-80 -192 -85 -197 0
-80 -212 -85 -217 0
-93 -122 -98 -127 0
-93 -138 -98 -143 0
-93 -212 -98 -217 0
-93 -233 -98 -238 0
-107 -138 -112 -143 0
-107 -155 -112 -160 0
-107 -192 -112 -197 0
-107 -255 -112 -260 0
-122 -138 -127 -143 0
-122 -155 -127 -160 0
-122 -192 -127 -197 0
-122 -212 -127 -217 0
-138 -173 -143 -178 0
-138 -192 -143 -197 0
-138 -233 -143 -238 0
-155 -192 -160 -197 0
-155 -212 -160 -217 0
-155 -255 -160 -260 0
-173 -212 -178 -217 0
-173 -233 -178 -238 0
-173 -255 -178 -260 0
-192 -233 -197 -238 0
-212 -255 -217 -260 0
-233 -255 -238 -260 0
-30 -80 -36 -86 0
-30 -93 -36 -99 0
-30 -107 -36 -113 0
-30 -192 -36 -198 0
-30 -212 -36 -218 0
-30 -233 -36 -239 0
-30 -255 -36 -261 0
-38 -57 -44 -63 0
-38 -93 -44 -99 0
-38 -107 -44 -113 0
-38 -138 -44 -144 0
-38 -155 -44 -161 0
-38 -173 -44 -179 0
-38 -212 -44 -218 0
-47 -68 -53 -74 0
-47 -80 -53 -86 0
-47 -107 -53 -113 0
-47 -122 -53 -128 0
-47 -138 -53 -144 0
-47 -173 -53 -179 0
-47 -255 -53 -261 0
-57 -68 -63 -74 0
-57 -80 -63 -86 0
-57 -155 -63 -161 0
-57 -173 -63 -179 0
-57 -192 -63 -198 0
-57 -233 -63 -239 0
-68 -93 -74 -99 0
-68 -122 -74 -128 0
-68 -155 -74 -161 0
-68 -233 -74 -239 0
-68 -255 -74 -261 0
-80 -122 -86 -128 0
-80 -173 -86 -179 0
-80 -192 -86 -198 0
-80 -212 -86 -218 0
-93 -122 -99 -128 0
-93 -138 -99 -144 0
-93 -212 -99 -218 0
-93 -233 -99 -239 0
-107 -138 -113 -144 0
-107 -155 -113 -161 0
-107 -192 -113 -198 0
-107 -255 -113 -261 0
-122 -138 -128 -144 0
-122 -155 -128 -161 0
-122 -192 -128 -198 0
-122 -212 -128 -218 0
-138 -173 -144 -179 0
-138 -192 -144 -198 0
-138 -233 -144 -239 0
-155 -192 -161 -198 0
-155 -212 -161 -218 0
-155 -255 -161 -261 0
-173 -212 -179 -218 0
-173 -233 -179 -239 0
-173 -255 -179 -261 0
-192 -233 -198 -239 0
-212 -255 -218 -261 0
-233 -255 -239 -261 0
-30 -80 -192 0
-30 -80 -212 0
-30 -93 -212 0
-30 -93 -233 0
-30 -107 -192 0
-30 -107 -255 0
-30 -192 -233 0
-30 -212 -255 0
-30 -233 -255 0
-38 -57 -155 0
-38 -57 -173 0
-38 -93 -138 0
-38 -93 -212 0
-38 -107 -138 0
-38 -107 -155 0
-38 -138 -173 0
-38 -155 -212 0
-38 -173 -212 0
-47 -68 -122 0
-47 -68 -255 0
-47 -80 -122 0
-47 -80 -173 0
-47 -107 -138 0
-47 -107 -255 0
-47 -122 -138 0
-47 -138 -173 0
-47 -173 -255 0
-57 -68 -155 0
-57 -68 -233 0
-57 -80 -173 0
-57 -80 -192 0
-57 -155 -192 0
-57 -173 -233 0
-57 -192 -233 0
-68 -93 -122 0
-68 -93 -233 0
-68 -122 -155 0
-68 -155 -255 0
-68 -233 -255 0
-80 -122 -192 0
-80 -122 -212 0
-80 -173 -212 0
-93 -122 -138 0
-93 -122 -212 0
-93 -138 -233 0
-107 -138 -192 0
-107 -155 -192 0
-107 -155 -255 0
-122 -138 -192 0
-122 -155 -192 0
-122 -155 -212 0
-138 -173 -233 0
-138 -192 -233 0
-155 -212 -255 0
-173 -212 -255 0
-173 -233 -255 0
-18 -31 -81 -35 -85 0
-18 -31 -94 -35 -98 0
-18 -31 -108 -35 -112 0
-18 -31 -193 -35 -197 0
-18 -31 -213 -35 -217 0
-18 -31 -234 -35 -238 0
-18 -31 -256 -35 -260 0
-18 -39 -58 -43 -62 0
-18 -39 -94 -43 -98 0
-18 -39 -108 -43 -112 0
-18 -39 -139 -43 -143 0
-18 -39 -156 -43 -160 0
-18 -39 -174 -43 -178 0
-18 -39 -213 -43 -217 0
-18 -48 -69 -52 -73 0
-18 -48 -81 -52 -85 0
-18 -48 -108 -52 -112 0
-18 -48 -123 -52 -127 0
-18 -48 -139 -52 -143 0
-18 -48 -174 -52 -178 0
-18 -48 -256 -52 -260 0
-18 -58 -69 -62 -73 0
-18 -58 -81 -62 -85 0
-18 -58 -156 -62 -160 0
-18 -58 -174 -62 -178 0
-18 -58 -193 -62 -197 0
-18 -58 -234 -62 -238 0
-18 -69 -94 -73 -98 0
-18 -69 -123 -73 -127 0
-18 -69 -156 -73 -160 0
-18 -69 -234 -73 -238 0
-18 -69 -256 -73 -260 0
-18 -81 -123 -85 -127 0
-18 -81 -174 -85 -178 0
-18 -81 -193 -85 -197 0
-18 -81 -213 -85 -217 0
-18 -94 -123 -98 -127 0
-18 -94 -139 -98 -143 0
-18 -94 -213 -98 -217 0
-18 -94 -234 -98 -238 0
-18 -108 -139 -112 -143 0
-18 -108 -156 -112 -160 0
-18 -108 -193 -112 -197 0
-18 -108 -256 -112 -260 0
-18 -123 -139 -127 -143 0
-18 -123 -156 -127 -160 0
-18 -123 -193 -127 -197 0
-18 -123 -213 -127 -217 0
-18 -139 -174 -143 -178 0
-18 -139 -193 -143 -197 0
-18 -139 -234 -143 -238 0
-18 -156 -193 -160 -197 0
-18 -156 -213 -160 -217 0
-18 -156 -256 -160 -260 0
-18 -174 -213 -178 -217 0
-18 -174 -234 -178 -238 0
-18 -174 -256 -178 -260 0
-18 -193 -234 -197 -238 0
-18 -213 -256 -217 -260 0
-18 -234 -256 -238 -260 0
-31 -81 -36 -86 0
-31 -94 -36 -99 0
-31 -108 -36 -113 0
-31 -193 -36 -198 0
-31 -213 -36 -218 0
-31 -234 -36 -239 0
-31 -256 -36 -261 0
-39 -58 -44 -63 0
-39 -94 -44 -99 0
-39 -108 -44 -113 0
-39 -139 -44 -144 0
-39 -156 -44 -161 0
-39 -174 -44 -179 0
-39 -213 -44 -218 0
-48 -69 -53 -74 0
-48 -81 -53 -86 0
-48 -108 -53 -113 0
-48 -123 -53 -128 0
-48 -139 -53 -144 0
-48 -174 -53 -179 0
-48 -256 -53 -261 0
-58 -69 -63 -74 0
-58 -81 -63 -86 0
-58 -156 -63 -161 0
-58 -174 -63 -179 0
-58 -193 -63 -198 0
-58 -234 -63 -239 0
-69 -94 -74 -99 0
-69 -123 -74 -128 0
-69 -156 -74 -161 0
-69 -234 -74 -239 0
-69 -256 -74 -261 0
-81 -123 -86 -128 0
-81 -174 -86 -179 0
-81 -193 -86 -198 0
-81 -213 -86 -218 0
-94 -123 -99 -128 0
-94 -139 -99 -144 0
-94 -213 -99 -218 0
-94 -234 -99 -239 0
-108 -139 -113 -144 0
-108 -156 -113 -161 0
-108 -193 -113 -198 0
-108 -256 -113 -261 0
-123 -139 -128 -144 0
-123 -156 -128 -161 0
-123 -193 -128 -198 0
-123 -213 -128 -218 0
-139 -174 -144 -179 0
-139 -193 -144 -198 0
-139 -234 -144 -239 0
-156 -193 -161 -198 0
-156 -213 -161 -218 0
-156 -256 -161 -261 0
-174 -213 -179 -218 0
-174 -234 -179 -239 0
-174 -256 -179 -261 0
-193 -234 -198 -239 0
-213 -256 -218 -261 0
-234 -256 -239 -261 0
-31 -81 -193 0
-31 -81 -213 0
-31 -94 -213 0
-31 -94 -234 0
-31 -108 -193 0
-31 -108 -256 0
-31 -193 -234 0
-31 -213 -256 0
-31 -234 -256 0
-39 -58 -156 0
-39 -58 -174 0
-39 -94 -139 0
-39 -94 -213 0
-39 -108 -139 0
-39 -108 -156 0
-39 -139 -174 0
-39 -156 -213 0
-39 -174 -213 0
-48 -69 -123 0
-48 -69 -256 0
-48 -81 -123 0
-48 -81 -174 0
-48 -108 -139 0
-48 -108 -256 0
-48 -123 -139 0
-48 -139 -174 0
-48 -174 -256 0
-58 -69 -156 0
-58 -69 -234 0
-58 -81 -174 0
-58 -81 -193 0
-58 -156 -193 0
-58 -174 -234 0
-58 -193 -234 0
-69 -94 -123 0
-69 -94 -234 0
-69 -123 -156 0
-69 -156 -256 0
-69 -234 -256 0
-81 -123 -193 0
-81 -123 -213 0
-81 -174 -213 0
-94 -123 -139 0
-94 -123 -213 0
-94 -139 -234 0
-108 -139 -193 0
-108 -156 -193 0
-108 -156 -256 0
-123 -139 -193 0
-123 -156 -193 0
-123 -156 -213 0
-139 -174 -234 0
-139 -193 -234 0
-156 -213 -256 0
-174 -213 -256 0
-174 -234 -256 0
-32 -82 -33 -83 0
-32 -95 -33 -96 0
-32 -109 -33 -110 0
-32 -194 -33 -195 0
-32 -214 -33 -215 0
-32 -235 -33 -236 0
-32 -257 -33 -258 0
-40 -59 -41 -60 0
-40 -95 -41 -96 0
-40 -109 -41 -110 0
-40 -140 -41 -141 0
-40 -157 -41 -158 0
-40 -175 -41 -176 0
-40 -214 -41 -215 0
-49 -70 -50 -71 0
-49 -82 -50 -83 0
-49 -109 -50 -110 0
-49 -124 -50 -125 0
-49 -140 -50 -141 0
-49 -175 -50 -176 0
-49 -257 -50 -258 0
-59 -70 -60 -71 0
-59 -82 -60 -83 0
-59 -157 -60 -158 0
-59 -175 -60 -176 0
-59 -194 -60 -195 0
-59 -235 -60 -236 0
-70 -95 -71 -96 0
-70 -124 -71 -125 0
-70 -157 -71 -158 0
-70 -235 -71 -236 0
-70 -257 -71 -258 0
-82 -124 -83 -125 0
-82 -175 -83 -176 0
-82 -194 -83 -195 0
-82 -214 -83 -215 0
-95 -124 -96 -125 0
-95 -140 -96 -141 0
-95 -214 -96 -215 0
-95 -235 -96 -236 0
-109 -140 -110 -141 0
-109 -157 -110 -158 0
-109 -194 -110 -195 0
-109 -257 -110 -258 0
-124 -140 -125 -141 0
-124 -157 -125 -158 0
-124 -194 -125 -195 0
-124 -214 -125 -215 0
-140 -175 -141 -176 0
-140 -194 -141 -195 0
-140 -235 -141 -236 0
-157 -194 -158 -195 0
-157 -214 -158 -215 0
-157 -257 -158 -258 0
-175 -214 -176 -215 0
-175 -235 -176 -236 0
-175 -257 -176 -258 0
-194 -235 -195 -236 0
-214 -257 -215 -258 0
-235 -257 -236 -258 0
-25 -32 -82 -36 -86 0
-25 -32 -95 -36 -99 0
-25 -32 -109 -36 -113 0
-25 -32 -194 -36 -198 0
-25 -32 -214 -36 -218 0
-25 -32 -235 -36 -239 0
-25 -32 -257 -36 -261 0
-25 -40 -59 -44 -63 0
-25 -40 -95 -44 -99 0
-25 -40 -109 -44 -113 0
-25 -40 -140 -44 -144 0
-25 -40 -157 -44 -161 0
-25 -40 -175 -44 -179 0
-25 -40 -214 -44 -218 0
-25 -49 -70 -53 -74 0
-25 -49 -82 -53 -86 0
-25 -49 -109 -53 -113 0
-25 -49 -124 -53 -128 0
-25 -49 -140 -53 -144 0
-25 -49 -175 -53 -179 0
-25 -49 -257 -53 -261 0
-25 -59 -70 -63 -74 0
-25 -59 -82 -63 -86 0
-25 -59 -157 -63 -161 0
-25 -59 -175 -63 -179 0
-25 -59 -194 -63 -198 0
-25 -59 -235 -63 -239 0
-25 -70 -95 -74 -99 0
-25 -70 -124 -74 -128 0
-25 -70 -157 -74 -161 0
-25 -70 -235 -74 -239 0
-25 -70 -257 -74 -261 0
-25 -82 -124 -86 -128 0
-25 -82 -175 -86 -179 0
-25 -82 -194 -86 -198 0
-25 -82 -214 -86 -218 0
-25 -95 -124 -99 -128 0
-25 -95 -140 -99 -144 0
-25 -95 -214 -99 -218 0
-25 -95 -235 -99 -239 0
-25 -109 -140 -113 -144 0
-25 -109 -157 -113 -161 0
-25 -109 -194 -113 -198 0
-25 -109 -257 -113 -261 0
-25 -124 -140 -128 -144 0
-25 -124 -157 -128 -161 0
-25 -124 -194 -128 -198 0
-25 -124 -214 -128 -218 0
-25 -140 -175 -144 -179 0
-25 -140 -194 -144 -198 0
-25 -140 -235 -144 -239 0
-25 -157 -194 -161 -198 0
-25 -157 -214 -161 -218 0
-25 -157 -257 -161 -261 0
-25 -175 -214 -179 -218 0
-25 -175 -235 -179 -239 0
-25 -175 -257 -179 -261 0
-25 -194 -235 -198 -239 0
-25 -214 -257 -218 -261 0
-25 -235 -257 -239 -261 0
-32 -82 -194 0
-32 -82 -214 0
-32 -95 -214 0
-32 -95 -235 0
-32 -109 -194 0
-32 -109 -257 0
-32 -194 -235 0
-32 -214 -257 0
-32 -235 -257 0
-40 -59 -157 0
-40 -59 -175 0
-40 -95 -140 0
-40 -95 -214 0
-40 -109 -140 0
-40 -109 -157 0
-40 -140 -175 0
-40 -157 -214 0
-40 -175 -214 0
-49 -70 -124 0
-49 -70 -257 0
-49 -82 -124 0
-49 -82 -175 0
-49 -109 -140 0
-49 -109 -257 0
-49 -124 -140 0
-49 -140 -175 0
-49 -175 -257 0
-59 -70 -157 0
-59 -70 -235 0
-59 -82 -175 0
-59 -82 -194 0
-59 -157 -194 0
-59 -175 -235 0
-59 -194 -235 0
-70 -95 -124 0
-70 -95 -235 0
-70 -124 -157 0
-70 -157 -257 0
-70 -235 -257 0
-82 -124 -194 0
-82 -124 -214 0
-82 -175 -214 0
-95 -124 -140 0
-95 -124 -214 0
-95 -140 -235 0
-109 -140 -194 0
-109 -157 -194 0
-109 -157 -257 0
-124 -140 -194 0
-124 -157 -194 0
-124 -157 -214 0
-140 -175 -235 0
-140 -194 -235 0
-157 -214 -257 0
-175 -214 -257 0
-175 -235 -257 0
-33 -83 -35 -85 0
-33 -96 -35 -98 0
-33 -110 -35 -112 0
-33 -195 -35 -197 0
-33 -215 -35 -217 0
-33 -236 -35 -238 0
-33 -258 -35 -260 0
-41 -60 -43 -62 0
-41 -96 -43 -98 0
-41 -110 -43 -112 0
-41 -141 -43 -143 0
-41 -158 -43 -160 0
-41 -176 -43 -178 0
-41 -215 -43 -217 0
-50 -71 -52 -73 0
-50 -83 -52 -85 0
-50 -110 -52 -112 0
-50 -125 -52 -127 0
-50 -141 -52 -143 0
-50 -176 -52 -178 0
-50 -258 -52 -260 0
-60 -71 -62 -73 0
-60 -83 -62 -85 0
-60 -158 -62 -160 0
-60 -176 -62 -178 0
-60 -195 -62 -197 0
-60 -236 -62 -238 0
-71 -96 -73 -98 0
-71 -125 -73 -127 0
-71 -158 -73 -160 0
-71 -236 -73 -238 0
-71 -258 -73 -260 0
-83 -125 -85 -127 0
-83 -176 -85 -178 0
-83 -195 -85 -197 0
-83 -215 -85 -217 0
-96 -125 -98 -127 0
-96 -141 -98 -143 0
-96 -215 -98 -217 0
-96 -236 -98 -238 0
-110 -141 -112 -143 0
-110 -158 -112 -160 0
-110 -195 -112 -197 0
-110 -258 -112 -260 0
-125 -141 -127 -143 0
-125 -158 -127 -160 0
-125 -195 -127 -197 0
-125 -215 -127 -217 0
-141 -176 -143 -178 0
-141 -195 -143 -197 0
-141 -236 -143 -238 0
-158 -195 -160 -197 0
-158 -215 -160 -217 0
-158 -258 -160 -260 0
-176 -215 -178 -217 0
-176 -236 -178 -238 0
-176 -258 -178 -260 0
-195 -236 -197 -238 0
-215 -258 -217 -260 0
-236 -258 -238 -260 0
-33 -83 -195 0
-33 -83 -215 0
-33 -96 -215 0
-33 -96 -236 0
-33 -110 -195 0
-33 -110 -258 0
-33 -195 -236 0
-33 -215 -258 0
-33 -236 -258 0
-41 -60 -158 0
-41 -60 -176 0
-41 -96 -141 0
-41 -96 -215 0
-41 -110 -141 0
-41 -110 -158 0
-41 -141 -176 0
-41 -158 -215 0
-41 -176 -215 0
-50 -71 -125 0
-50 -71 -258 0
-50 -83 -125 0
-50 -83 -176 0
-50 -110 -141 0
-50 -110 -258 0
-50 -125 -141 0
-50 -141 -176 0
-50 -176 -258 0
-60 -71 -158 0
-60 -71 -236 0
-60 -83 -176 0
-60 -83 -195 0
-60 -158 -195 0
-60 -176 -236 0
-60 -195 -236 0
-71 -96 -125 0
-71 -96 -236 0
-71 -125 -158 0
-71 -158 -258 0
-71 -236 -258 0
-83 -125 -195 0
-83 -125 -215 0
-83 -176 -215 0
-96 -125 -141 0
-96 -125 -215 0
-96 -141 -236 0
-110 -141 -195 0
-110 -158 -195 0
-110 -158 -258 0
-125 -141 -195 0
-125 -158 -195 0
-125 -158 -215 0
-141 -176 -236 0
-141 -195 -236 0
-158 -215 -258 0
-176 -215 -258 0
-176 -236 -258 0
-21 -34 -84 -35 -85 0
-21 -34 -97 -35 -98 0
-21 -34 -111 -35 -112 0
-21 -34 -196 -35 -197 0
-21 -34 -216 -35 -217 0
-21 -34 -237 -35 -238 0
-21 -34 -259 -35 -260 0
-21 -42 -61 -43 -62 0
-21 -42 -97 -43 -98 0
-21 -42 -111 -43 -112 0
-21 -42 -142 -43 -143 0
-21 -42 -159 -43 -160 0
-21 -42 -177 -43 -178 0
-21 -42 -216 -43 -217 0
-21 -51 -72 -52 -73 0
-21 -51 -84 -52 -85 0
-21 -51 -111 -52 -112 0
-21 -51 -126 -52 -127 0
-21 -51 -142 -52 -143 0
-21 -51 -177 -52 -178 0
-21 -51 -259 -52 -260 0
-21 -61 -72 -62 -73 0
-21 -61 -84 -62 -85 0
-21 -61 -159 -62 -160 0
-21 -61 -177 -62 -178 0
-21 -61 -196 -62 -197 0
-21 -61 -237 -62 -238 0
-21 -72 -97 -73 -98 0
-21 -72 -126 -73 -127 0
-21 -72 -159 -73 -160 0
-21 -72 -237 -73 -238 0
-21 -72 -259 -73 -260 0
-21 -84 -126 -85 -127 0
-21 -84 -177 -85 -178 0
-21 -84 -196 -85 -197 0
-21 -84 -216 -85 -217 0
-21 -97 -126 -98 -127 0
-21 -97 -142 -98 -143 0
-21 -97 -216 -98 -217 0
-21 -97 -237 -98 -238 0
-21 -111 -142 -112 -143 0
-21 -111 -159 -112 -160 0
-21 -111 -196 -112 -197 0
-21 -111 -259 -112 -260 0
-21 -126 -142 -127 -143 0
-21 -126 -159 -127 -160 0
-21 -126 -196 -127 -197 0
-21 -126 -216 -127 -217 0
-21 -142 -177 -143 -178 0
-21 -142 -196 -143 -197 0
-21 -142 -237 -143 -238 0
-21 -159 -196 -160 -197 0
-21 -159 -216 -160 -217 0
-21 -159 -259 -160 -260 0
-21 -177 -216 -178 -217 0
-21 -177 -237 -178 -238 0
-21 -177 -259 -178 -260 0
-21 -196 -237 -197 -238 0
-21 -216 -259 -217 -260 0
-21 -237 -259 -238 -260 0
-27 -34 -84 -36 -86 0
-27 -34 -97 -36 -99 0
-27 -34 -111 -36 -113 0
-27 -34 -196 -36 -198 0
-27 -34 -216 -36 -218 0
-27 -34 -237 -36 -239 0
-27 -34 -259 -36 -261 0
-27 -42 -61 -44 -63 0
-27 -42 -97 -44 -99 0
-27 -42 -111 -44 -113 0
-27 -42 -142 -44 -144 0
-27 -42 -159 -44 -161 0
-27 -42 -177 -44 -179 0
-27 -42 -216 -44 -218 0
-27 -51 -72 -53 -74 0
-27 -51 -84 -53 -86 0
-27 -51 -111 -53 -113 0
-27 -51 -126 -53 -128 0
-27 -51 -142 -53 -144 0
-27 -51 -177 -53 -179 0
-27 -51 -259 -53 -261 0
-27 -61 -72 -63 -74 0
-27 -61 -84 -63 -86 0
-27 -61 -159 -63 -161 0
-27 -61 -177 -63 -179 0
-27 -61 -196 -63 -198 0
-27 -61 -237 -63 -239 0
-27 -72 -97 -74 -99 0
-27 -72 -126 -74 -128 0
-27 -72 -159 -74 -161 0
-27 -72 -237 -74 -239 0
-27 -72 -259 -74 -261 0
-27 -84 -126 -86 -128 0
-27 -84 -177 -86 -179 0
-27 -84 -196 -86 -198 0
-27 -84 -216 -86 -218 0
-27 -97 -126 -99 -128 0
-27 -97 -142 -99 -144 0
-27 -97 -216 -99 -218 0
-27 -97 -237 -99 -239 0
-27 -111 -142 -113 -144 0
-27 -111 -159 -113 -161 0
-27 -111 -196 -113 -198 0
-27 -111 -259 -113 -261 0
-27 -126 -142 -128 -144 0
-27 -126 -159 -128 -161 0
-27 -126 -196 -128 -198 0
-27 -126 -216 -128 -218 0
-27 -142 -177 -144 -179 0
-27 -142 -196 -144 -198 0
-27 -142 -237 -144 -239 0
-27 -159 -196 -161 -198 0
-27 -159 -216 -161 -218 0
-27 -159 -259 -161 -261 0
-27 -177 -216 -179 -218 0
-27 -177 -237 -179 -239 0
-27 -177 -259 -179 -261 0
-27 -196 -237 -198 -239 0
-27 -216 -259 -218 -261 0
-27 -237 -259 -239 -261 0
-34 -84 -196 0
-34 -84 -216 0
-34 -97 -216 0
-34 -97 -237 0
-34 -111 -196 0
-34 -111 -259 0
-34 -196 -237 0
-34 -216 -259 0
-34 -237 -259 0
-42 -61 -159 0
-42 -61 -177 0
-42 -97 -142 0
-42 -97 -216 0
-42 -111 -142 0
-42 -111 -159 0
-42 -142 -177 0
-42 -159 -216 0
-42 -177 -216 0
-51 -72 -126 0
-51 -72 -259 0
-51 -84 -126 0
-51 -84 -177 0
-51 -111 -142 0
-51 -111 -259 0
-51 -126 -142 0
-51 -142 -177 0
-51 -177 -259 0
-61 -72 -159 0
-61 -72 -237 0
-61 -84 -177 0
-61 -84 -196 0
-61 -159 -196 0
-61 -177 -237 0
-61 -196 -237 0
-72 -97 -126 0
-72 -97 -237 0
-72 -126 -159 0
-72 -159 -259 0
-72 -237 -259 0
-84 -126 -196 0
-84 -126 -216 0
-84 -177 -216 0
-97 -126 -142 0
-97 -126 -216 0
-97 -142 -237 0
-111 -142 -196 0
-111 -159 -196 0
-111 -159 -259 0
-126 -142 -196 0
-126 -159 -196 0
-126 -159 -216 0
-142 -177 -237 0
-142 -196 -237 0
-159 -216 -259 0
-177 -216 -259 0
-177 -237 -259 0
-35 -85 -197 0
-35 -85 -217 0
-35 -98 -217 0
-35 -98 -238 0
-35 -112 -197 0
-35 -112 -260 0
-35 -197 -238 0
-35 -217 -260 0
-35 -238 -260 0
-43 -62 -160 0
-43 -62 -178 0
-43 -98 -143 0
-43 -98 -217 0
-43 -112 -143 0
-43 -112 -160 0
-43 -143 -178 0
-43 -160 -217 0
-43 -178 -217 0
-52 -73 -127 0
-52 -73 -260 0
-52 -85 -127 0
-52 -85 -178 0
-52 -112 -143 0
-52 -112 -260 0
-52 -127 -143 0
-52 -143 -178 0
-52 -178 -260 0
-62 -73 -160 0
-62 -73 -238 0
-62 -85 -178 0
-62 -85 -197 0
-62 -160 -197 0
-62 -178 -238 0
-62 -197 -238 0
-73 -98 -127 0
-73 -98 -238 0
-73 -127 -160 0
-73 -160 -260 0
-73 -238 -260 0
-85 -127 -197 0
-85 -127 -217 0
-85 -178 -217 0
-98 -127 -143 0
-98 -127 -217 0
-98 -143 -238 0
-112 -143 -197 0
-112 -160 -197 0
-112 -160 -260 0
-127 -143 -197 0
-127 -160 -197 0
-127 -160 -217 0
-143 -178 -238 0
-143 -197 -238 0
-160 -217 -260 0
-178 -217 -260 0
-178 -238 -260 0
-36 -86 -198 0
-36 -86 -218 0
-36 -99 -218 0
-36 -99 -239 0
-36 -113 -198 0
-36 -113 -261 0
-36 -198 -239 0
-36 -218 -261 0
-36 -239 -261 0
-44 -63 -161 0
-44 -63 -179 0
-44 -99 -144 0
-44 -99 -218 0
-44 -113 -144 0
-44 -113 -161 0
-44 -144 -179 0
-44 -161 -218 0
-44 -179 -218 0
-53 -74 -128 0
-53 -74 -261 0
-53 -86 -128 0
-53 -86 -179 0
-53 -113 -144 0
-53 -113 -261 0
-53 -128 -144 0
-53 -144 -179 0
-53 -179 -261 0
-63 -74 -161 0
-63 -74 -239 0
-63 -86 -179 0
-63 -86 -198 0
-63 -161 -198 0
-63 -179 -239 0
-63 -198 -239 0
-74 -99 -128 0
-74 -99 -239 0
-74 -128 -161 0
-74 -161 -261 0
-74 -239 -261 0
-86 -128 -198 0
-86 -128 -218 0
-86 -179 -218 0
-99 -128 -144 0
-99 -128 -218 0
-99 -144 -239 0
-113 -144 -198 0
-113 -161 -198 0
-113 -161 -261 0
-128 -144 -198 0
-128 -161 -198 0
-128 -161 -218 0
-144 -179 -239 0
-144 -198 -239 0
-161 -218 -261 0
-179 -218 -261 0
-179 -239 -261 0
29 30 31 32 0
37 38 39 40 0
46 47 48 49 0
56 57 58 59 0
67 68 69 70 0
79 80 81 82 0
92 93 94 95 0
106 107 108 109 0
121 122 123 124 0
137 138 139 140 0
154 155 156 157 0
172 173 174 175 0
191 192 193 194 0
211 212 213 214 0
232 233 234 235 0
254 255 256 257 0
29 30 31 33 0
37 38 39 41 0
46 47 48 50 0
56 57 58 60 0
67 68 69 71 0
79 80 81 83 0
92 93 94 96 0
106 107 108 110 0
121 122 123 125 0
137 138 139 141 0
154 155 156 158 0
172 173 174 176 0
191 192 193 195 0
211 212 213 215 0
232 233 234 236 0
254 255 256 258 0
29 37 30 38 31 39 0
29 46 30 47 31 48 0
29 56 30 57 31 58 0
29 67 30 68 31 69 0
29 121 30 122 31 123 0
29 137 30 138 31 139 0
29 154 30 155 31 156 0
29 172 30 173 31 174 0
37 46 38 47 39 48 0
37 67 38 68 39 69 0
37 79 38 80 39 81 0
37 121 38 122 39 123 0
37 191 38 192 39 193 0
37 232 38 233 39 234 0
37 254 38 255 39 256 0
46 56 47 57 48 58 0
46 92 47 93 48 94 0
46 154 47 155 48 156 0
46 191 47 192 48 193 0
46 211 47 212 48 213 0
46 232 47 233 48 234 0
56 92 57 93 58 94 0
56 106 57 107 58 108 0
56 121 57 122 58 123 0
56 137 57 138 58 139 0
56 211 57 212 58 213 0
56 254 57 255 58 256 0
67 79 68 80 69 81 0
67 106 68 107 69 108 0
67 137 68 138 69 139 0
67 172 68 173 69 174 0
67 191 68 192 69 193 0
67 211 68 212 69 213 0
79 92 80 93 81 94 0
79 106 80 107 81 108 0
79 137 80 138 81 139 0
79 154 80 155 81 156 0
79 232 80 233 81 234 0
79 254 80 255 81 256 0
92 106 93 107 94 108 0
92 154 93 155 94 156 0
92 172 93 173 94 174 0
92 191 93 192 94 193 0
92 254 93 255 94 256 0
106 121 107 122 108 123 0
106 172 107 173 108 174 0
106 211 107 212 108 213 0
106 232 107 233 108 234 0
121 172 122 173 123 174 0
121 232 122 233 123 234 0
121 254 122 255 123 256 0
137 154 138 155 139 156 0
137 211 138 212 139 213 0
137 254 138 255 139 256 0
154 172 155 173 156 174 0
154 232 155 233 156 234 0
172 191 173 192 174 193 0
191 211 192 212 193 213 0
191 254 192 255 193 256 0
211 232 212 233 213 234 0
29 37 30 38 32 40 0
29 46 30 47 32 49 0
29 56 30 57 32 59 0
29 67 30 68 32 70 0
29 121 30 122 32 124 0
29 137 30 138 32 140 0
29 154 30 155 32 157 0
29 172 30 173 32 175 0
37 46 38 47 40 49 0
37 67 38 68 40 70 0
37 79 38 80 40 82 0
37 121 38 122 40 124 0
37 191 38 192 40 194 0
37 232 38 233 40 235 0
37 254 38 255 40 257 0
46 56 47 57 49 59 0
46 92 47 93 49 95 0
46 154 47 155 49 157 0
46 191 47 192 49 194 0
46 211 47 212 49 214 0
46 232 47 233 49 235 0
56 92 57 93 59 95 0
56 106 57 107 59 109 0
56 121 57 122 59 124 0
56 137 57 138 59 140 0
56 211 57 212 59 214 0
56 254 57 255 59 257 0
67 79 68 80 70 82 0
67 106 68 107 70 109 0
67 137 68 138 70 140 0
67 172 68 173 70 175 0
67 191 68 192 70 194 0
67 211 68 212 70 214 0
79 92 80 93 82 95 0
79 106 80 107 82 109 0
79 137 80 138 82 140 0
79 154 80 155 82 157 0
79 232 80 233 82 235 0
79 254 80 255 82 257 0
92 106 93 107 95 109 0
92 154 93 155 95 157 0
92 172 93 173 95 175 0
92 191 93 192 95 194 0
92 254 93 255 95 257 0
106 121 107 122 109 124 0
106 172 107 173 109 175 0
106 211 107 212 109 214 0
106 232 107 233 109 235 0
121 172 122 173 124 175 0
121 232 122 233 124 235 0
121 254 122 255 124 257 0
137 154 138 155 140 157 0
137 211 138 212 140 214 0
137 254 138 255 140 257 0
154 172 155 173 157 175 0
154 232 155 233 157 235 0
172 191 173 192 175 194 0
191 211 192 212 194 214 0
191 254 192 255 194 257 0
211 232 212 233 214 235 0
29 37 30 38 33 41 0
29 46 30 47 33 50 0
29 56 30 57 33 60 0
29 67 30 68 33 71 0
29 121 30 122 33 125 0
29 137 30 138 33 141 0
29 154 30 155 33 158 0
29 172 30 173 33 176 0
37 46 38 47 41 50 0
37 67 38 68 41 71 0
37 79 38 80 41 83 0
37 121 38 122 41 125 0
37 191 38 192 41 195 0
37 232 38 233 41 236 0
37 254 38 255 41 258 0
46 56 47 57 50 60 0
46 92 47 93 50 96 0
46 154 47 155 50 158 0
46 191 47 192 50 195 0
46 211 47 212 50 215 0
46 232 47 233 50 236 0
56 92 57 93 60 96 0
56 106 57 107 60 110 0
56 121 57 122 60 125 0
56 137 57 138 60 141 0
56 211 57 212 60 215 0
56 254 57 255 60 258 0
67 79 68 80 71 83 0
67 106 68 107 71 110 0
67 137 68 138 71 141 0
67 172 68 173 71 176 0
67 191 68 192 71 195 0
67 211 68 212 71 215 0
79 92 80 93 83 96 0
79 106 80 107 83 110 0
79 137 80 138 83 141 0
79 154 80 155 83 158 0
79 232 80 233 83 236 0
79 254 80 255 83 258 0
92 106 93 107 96 110 0
92 154 93 155 96 158 0
92 172 93 173 96 176 0
92 191 93 192 96 195 0
92 254 93 255 96 258 0
106 121 107 122 110 125 0
106 172 107 173 110 176 0
106 211 107 212 110 215 0
106 232 107 233 110 236 0
121 172 122 173 125 176 0
121 232 122 233 125 236 0
121 254 122 255 125 258 0
137 154 138 155 141 158 0
137 211 138 212 141 215 0
137 254 138 255 141 258 0
154 172 155 173 158 176 0
154 232 155 233 158 236 0
172 191 173 192 176 195 0
191 211 192 212 195 215 0
191 254 192 255 195 258 0
211 232 212 233 215 236 0
29 37 46 30 38 47 0
29 37 67 30 38 68 0
29 37 121 30 38 122 0
29 46 56 30 47 57 0
29 46 154 30 47 155 0
29 56 121 30 57 122 0
29 56 137 30 57 138 0
29 67 137 30 68 138 0
29 67 172 30 68 173 0
29 121 172 30 122 173 0
29 137 154 30 138 155 0
29 154 172 30 155 173 0
37 46 191 38 47 192 0
37 46 232 38 47 233 0
37 67 79 38 68 80 0
37 67 191 38 68 192 0
37 79 232 38 80 233 0
37 79 254 38 80 255 0
37 121 232 38 122 233 0
37 121 254 38 122 255 0
37 191 254 38 192 255 0
46 56 92 47 57 93 0
46 56 211 47 57 212 0
46 92 154 47 93 155 0
46 92 191 47 93 192 0
46 154 232 47 155 233 0
46 191 211 47 192 212 0
46 211 232 47 212 233 0
56 92 106 57 93 107 0
56 92 254 57 93 255 0
56 106 121 57 107 122 0
56 106 211 57 107 212 0
56 121 254 57 122 255 0
56 137 211 57 138 212 0
56 137 254 57 138 255 0
67 79 106 68 80 107 0
67 79 137 68 80 138 0
67 106 172 68 107 173 0
67 106 211 68 107 212 0
67 137 211 68 138 212 0
67 172 191 68 173 192 0
67 191 211 68 192 212 0
79 92 106 80 93 107 0
79 92 154 80 93 155 0
79 92 254 80 93 255 0
79 106 232 80 107 233 0
79 137 154 80 138 155 0
79 137 254 80 138 255 0
79 154 232 80 155 233 0
92 106 172 93 107 173 0
92 154 172 93 155 173 0
92 172 191 93 173 192 0
92 191 254 93 192 255 0
106 121 172 107 122 173 0
106 121 232 107 122 233 0
106 211 232 107 212 233 0
29 18 31 32 35 0
37 18 39 40 43 0
46 18 48 49 52 0
56 18 58 59 62 0
67 18 69 70 73 0
79 18 81 82 85 0
92 18 94 95 98 0
106 18 108 109 112 0
121 18 123 124 127 0
137 18 139 140 143 0
154 18 156 157 160 0
172 18 174 175 178 0
191 18 193 194 197 0
211 18 213 214 217 0
232 18 234 235 238 0
254 18 256 257 260 0
29 37 31 39 32 40 0
29 46 31 48 32 49 0
29 56 31 58 32 59 0
29 67 31 69 32 70 0
29 121 31 123 32 124 0
29 137 31 139 32 140 0
29 154 31 156 32 157 0
29 172 31 174 32 175 0
37 46 39 48 40 49 0
37 67 39 69 40 70 0
37 79 39 81 40 82 0
37 121 39 123 40 124 0
37 191 39 193 40 194 0
37 232 39 234 40 235 0
37 254 39 256 40 257 0
46 56 48 58 49 59 0
46 92 48 94 49 95 0
46 154 48 156 49 157 0
46 191 48 193 49 194 0
46 211 48 213 49 214 0
46 232 48 234 49 235 0
56 92 58 94 59 95 0
56 106 58 108 59 109 0
56 121 58 123 59 124 0
56 137 58 139 59 140 0
56 211 58 213 59 214 0
56 254 58 256 59 257 0
67 79 69 81 70 82 0
67 106 69 108 70 109 0
67 137 69 139 70 140 0
67 172 69 174 70 175 0
67 191 69 193 70 194 0
67 211 69 213 70 214 0
79 92 81 94 82 95 0
79 106 81 108 82 109 0
79 137 81 139 82 140 0
79 154 81 156 82 157 0
79 232 81 234 82 235 0
79 254 81 256 82 257 0
92 106 94 108 95 109 0
92 154 94 156 95 157 0
92 172 94 174 95 175 0
92 191 94 193 95 194 0
92 254 94 256 95 257 0
106 121 108 123 109 124 0
106 172 108 174 109 175 0
106 211 108 213 109 214 0
106 232 108 234 109 235 0
121 172 123 174 124 175 0
121 232 123 234 124 235 0
121 254 123 256 124 257 0
137 154 139 156 140 157 0
137 211 139 213 140 214 0
137 254 139 256 140 257 0
154 172 156 174 157 175 0
154 232 156 234 157 235 0
172 191 174 193 175 194 0
191 211 193 213 194 214 0
191 254 193 256 194 257 0
211 232 213 234 214 235 0
29 37 31 39 33 41 0
29 46 31 48 33 50 0
29 56 31 58 33 60 0
29 67 31 69 33 71 0
29 121 31 123 33 125 0
29 137 31 139 33 141 0
29 154 31 156 33 158 0
29 172 31 174 33 176 0
37 46 39 48 41 50 0
37 67 39 69 41 71 0
37 79 39 81 41 83 0
37 121 39 123 41 125 0
37 191 39 193 41 195 0
37 232 39 234 41 236 0
37 254 39 256 41 258 0
46 56 48 58 50 60 0
46 92 48 94 50 96 0
46 154 48 156 50 158 0
46 191 48 193 50 195 0
46 211 48 213 50 215 0
46 232 48 234 50 236 0
56 92 58 94 60 96 0
56 106 58 108 60 110 0
56 121 58 123 60 125 0
56 137 58 139 60 141 0
56 211 58 213 60 215 0
56 254 58 256 60 258 0
67 79 69 81 71 83 0
67 106 69 108 71 110 0
67 137 69 139 71 141 0
67 172 69 174 71 176 0
67 191 69 193 71 195 0
67 211 69 213 71 215 0
79 92 81 94 83 96 0
79 106 81 108 83 110 0
79 137 81 139 83 141 0
79 154 81 156 83 158 0
79 232 81 234 83 236 0
79 254 81 256 83 258 0
92 106 94 108 96 110 0
92 154 94 156 96 158 0
92 172 94 174 96 176 0
92 191 94 193 96 195 0
92 254 94 256 96 258 0
106 121 108 123 110 125 0
106 172 108 174 110 176 0
106 211 108 213 110 215 0
106 232 108 234 110 236 0
121 172 123 174 125 176 0
121 232 123 234 125 236 0
121 254 123 256 125 258 0
137 154 139 156 141 158 0
137 211 139 213 141 215 0
137 254 139 256 141 258 0
154 172 156 174 158 176 0
154 232 156 234 158 236 0
172 191 174 193 176 195 0
191 211 193 213 195 215 0
191 254 193 256 195 258 0
211 232 213 234 215 236 0
29 37 18 31 39 35 43 0
29 46 18 31 48 35 52 0
29 56 18 31 58 35 62 0
29 67 18 31 69 35 73 0
29 121 18 31 123 35 127 0
29 137 18 31 139 35 143 0
29 154 18 31 156 35 160 0
29 172 18 31 174 35 178 0
37 46 18 39 48 43 52 0
37 67 18 39 69 43 73 0
37 79 18 39 81 43 85 0
37 121 18 39 123 43 127 0
37 191 18 39 193 43 197 0
37 232 18 39 234 43 238 0
37 254 18 39 256 43 260 0
46 56 18 48 58 52 62 0
46 92 18 48 94 52 98 0
46 154 18 48 156 52 160 0
46 191 18 48 193 52 197 0
46 211 18 48 213 52 217 0
46 232 18 48 234 52 238 0
56 92 18 58 94 62 98 0
56 106 18 58 108 62 112 0
56 121 18 58 123 62 127 0
56 137 18 58 139 62 143 0
56 211 18 58 213 62 217 0
56 254 18 58 256 62 260 0
67 79 18 69 81 73 85 0
67 106 18 69 108 73 112 0
67 137 18 69 139 73 143 0
67 172 18 69 174 73 178 0
67 191 18 69 193 73 197 0
67 211 18 69 213 73 217 0
79 92 18 81 94 85 98 0
79 106 18 81 108 85 112 0
79 137 18 81 139 85 143 0
79 154 18 81 156 85 160 0
79 232 18 81 234 85 238 0
79 254 18 81 256 85 260 0
92 106 18 94 108 98 112 0
92 154 18 94 156 98 160 0
92 172 18 94 174 98 178 0
92 191 18 94 193 98 197 0
92 254 18 94 256 98 260 0
106 121 18 108 123 112 127 0
106 172 18 108 174 112 178 0
106 211 18 108 213 112 217 0
106 232 18 108 234 112 238 0
121 172 18 123 174 127 178 0
121 232 18 123 234 127 238 0
121 254 18 123 256 127 260 0
137 154 18 139 156 143 160 0
137 211 18 139 213 143 217 0
137 254 18 139 256 143 260 0
154 172 18 156 174 160 178 0
154 232 18 156 234 160 238 0
172 191 18 174 193 178 197 0
191 211 18 193 213 197 217 0
191 254 18 193 256 197 260 0
211 232 18 213 234 217 238 0
29 37 46 31 39 48 0
29 37 67 31 39 69 0
29 37 121 31 39 123 0
29 46 56 31 48 58 0
29 46 154 31 48 156 0
29 56 121 31 58 123 0
29 56 137 31 58 139 0
29 67 137 31 69 139 0
29 67 172 31 69 174 0
29 121 172 31 123 174 0
29 137 154 31 139 156 0
29 154 172 31 156 174 0
37 46 191 39 48 193 0
37 46 232 39 48 234 0
37 67 79 39 69 81 0
37 67 191 39 69 193 0
37 79 232 39 81 234 0
37 79 254 39 81 256 0
37 121 232 39 123 234 0
37 121 254 39 123 256 0
37 191 254 39 193 256 0
46 56 92 48 58 94 0
46 56 211 48 58 213 0
46 92 154 48 94 156 0
46 92 191 48 94 193 0
46 154 232 48 156 234 0
46 191 211 48 193 213 0
46 211 232 48 213 234 0
56 92 106 58 94 108 0
56 92 254 58 94 256 0
56 106 121 58 108 123 0
56 106 211 58 108 213 0
56 121 254 58 123 256 0
56 137 211 58 139 213 0
56 137 254 58 139 256 0
67 79 106 69 81 108 0
67 79 137 69 81 139 0
67 106 172 69 108 174 0
67 106 211 69 108 213 0
67 137 211 69 139 213 0
67 172 191 69 174 193 0
67 191 211 69 193 213 0
79 92 106 81 94 108 0
79 92 154 81 94 156 0
79 92 254 81 94 256 0
79 106 232 81 108 234 0
79 137 154 81 139 156 0
79 137 254 81 139 256 0
79 154 232 81 156 234 0
92 106 172 94 108 174 0
92 154 172 94 156 174 0
92 172 191 94 174 193 0
92 191 254 94 193 256 0
106 121 172 108 123 174 0
106 121 232 108 123 234 0
106 211 232 108 213 234 0
29 25 32 35 36 0
37 25 40 43 44 0
46 25 49 52 53 0
56 25 59 62 63 0
67 25 70 73 74 0
79 25 82 85 86 0
92 25 95 98 99 0
106 25 109 112 113 0
121 25 124 127 128 0
137 25 140 143 144 0
154 25 157 160 161 0
172 25 175 178 179 0
191 25 194 197 198 0
211 25 214 217 218 0
232 25 235 238 239 0
254 25 257 260 261 0
29 37 32 40 35 43 0
29 46 32 49 35 52 0
29 56 32 59 35 62 0
29 67 32 70 35 73 0
29 121 32 124 35 127 0
29 137 32 140 35 143 0
29 154 32 157 35 160 0
29 172 32 175 35 178 0
37 46 40 49 43 52 0
37 67 40 70 43 73 0
37 79 40 82 43 85 0
37 121 40 124 43 127 0
37 191 40 194 43 197 0
37 232 40 235 43 238 0
37 254 40 257 43 260 0
46 56 49 59 52 62 0
46 92 49 95 52 98 0
46 154 49 157 52 160 0
46 191 49 194 52 197 0
46 211 49 214 52 217 0
46 232 49 235 52 238 0
56 92 59 95 62 98 0
56 106 59 109 62 112 0
56 121 59 124 62 127 0
56 137 59 140 62 143 0
56 211 59 214 62 217 0
56 254 59 257 62 260 0
67 79 70 82 73 85 0
67 106 70 109 73 112 0
67 137 70 140 73 143 0
67 172 70 175 73 178 0
67 191 70 194 73 197 0
67 211 70 214 73 217 0
79 92 82 95 85 98 0
79 106 82 109 85 112 0
79 137 82 140 85 143 0
79 154 82 157 85 160 0
79 232 82 235 85 238 0
79 254 82 257 85 260 0
92 106 95 109 98 112 0
92 154 95 157 98 160 0
92 172 95 175 98 178 0
92 191 95 194 98 197 0
92 254 95 257 98 260 0
106 121 109 124 112 127 0
106 172 109 175 112 178 0
106 211 109 214 112 217 0
106 232 109 235 112 238 0
121 172 124 175 127 178 0
121 232 124 235 127 238 0
121 254 124 257 127 260 0
137 154 140 157 143 160 0
137 211 140 214 143 217 0
137 254 140 257 143 260 0
154 172 157 175 160 178 0
154 232 157 235 160 238 0
172 191 175 194 178 197 0
191 211 194 214 197 217 0
191 254 194 257 197 260 0
211 232 214 235 217 238 0
29 37 25 32 40 36 44 0
29 46 25 32 49 36 53 0
29 56 25 32 59 36 63 0
29 67 25 32 70 36 74 0
29 121 25 32 124 36 128 0
29 137 25 32 140 36 144 0
29 154 25 32 157 36 161 0
29 172 25 32 175 36 179 0
37 46 25 40 49 44 53 0
37 67 25 40 70 44 74 0
37 79 25 40 82 44 86 0
37 121 25 40 124 44 128 0
37 191 25 40 194 44 198 0
37 232 25 40 235 44 239 0
37 254 25 40 257 44 261 0
46 56 25 49 59 53 63 0
46 92 25 49 95 53 99 0
46 154 25 49 157 53 161 0
46 191 25 49 194 53 198 0
46 211 25 49 214 53 218 0
46 232 25 49 235 53 239 0
56 92 25 59 95 63 99 0
56 106 25 59 109 63 113 0
56 121 25 59 124 63 128 0
56 137 25 59 140 63 144 0
56 211 25 59 214 63 218 0
56 254 25 59 257 63 261 0
67 79 25 70 82 74 86 0
67 106 25 70 109 74 113 0
67 137 25 70 140 74 144 0
67 172 25 70 175 74 179 0
67 191 25 70 194 74 198 0
67 211 25 70 214 74 218 0
79 92 25 82 95 86 99 0
79 106 25 82 109 86 113 0
79 137 25 82 140 86 144 0
79 154 25 82 157 86 161 0
79 232 25 82 235 86 239 0
79 254 25 82 257 86 261 0
92 106 25 95 109 99 113 0
92 154 25 95 157 99 161 0
92 172 25 95 175 99 179 0
92 191 25 95 194 99 198 0
92 254 25 95 257 99 261 0
106 121 25 109 124 113 128 0
106 172 25 109 175 113 179 0
106 211 25 109 214 113 218 0
106 232 25 109 235 113 239 0
121 172 25 124 175 128 179 0
121 232 25 124 235 128 239 0
121 254 25 124 257 128 261 0
137 154 25 140 157 144 161 0
137 211 25 140 214 144 218 0
137 254 25 140 257 144 261 0
154 172 25 157 175 161 179 0
154 232 25 157 235 161 239 0
172 191 25 175 194 179 198 0
191 211 25 194 214 198 218 0
191 254 25 194 257 198 261 0
211 232 25 214 235 218 239 0
29 37 46 32 40 49 0
29 37 67 32 40 70 0
29 37 121 32 40 124 0
29 46 56 32 49 59 0
29 46 154 32 49 157 0
29 56 121 32 59 124 0
29 56 137 32 59 140 0
29 67 137 32 70 140 0
29 67 172 32 70 175 0
29 121 172 32 124 175 0
29 137 154 32 140 157 0
29 154 172 32 157 175 0
37 46 191 40 49 194 0
37 46 232 40 49 235 0
37 67 79 40 70 82 0
37 67 191 40 70 194 0
37 79 232 40 82 235 0
37 79 254 40 82 257 0
37 121 232 40 124 235 0
37 121 254 40 124 257 0
37 191 254 40 194 257 0
46 56 92 49 59 95 0
46 56 211 49 59 214 0
46 92 154 49 95 157 0
46 92 191 49 95 194 0
46 154 232 49 157 235 0
46 191 211 49 194 214 0
46 211 232 49 214 235 0
56 92 106 59 95 109 0
56 92 254 59 95 257 0
56 106 121 59 109 124 0
56 106 211 59 109 214 0
56 121 254 59 124 257 0
56 137 211 59 140 214 0
56 137 254 59 140 257 0
67 79 106 70 82 109 0
67 79 137 70 82 140 0
67 106 172 70 109 175 0
67 106 211 70 109 214 0
67 137 211 70 140 214 0
67 172 191 70 175 194 0
67 191 211 70 194 214 0
79 92 106 82 95 109 0
79 92 154 82 95 157 0
79 92 254 82 95 257 0
79 106 232 82 109 235 0
79 137 154 82 140 157 0
79 137 254 82 140 257 0
79 154 232 82 157 235 0
92 106 172 95 109 175 0
92 154 172 95 157 175 0
92 172 191 95 175 194 0
92 191 254 95 194 257 0
106 121 172 109 124 175 0
106 121 232 109 124 235 0
106 211 232 109 214 235 0
29 37 33 41 36 44 0
29 46 33 50 36 53 0
29 56 33 60 36 63 0
29 67 33 71 36 74 0
29 121 33 125 36 128 0
29 137 33 141 36 144 0
29 154 33 158 36 161 0
29 172 33 176 36 179 0
37 46 41 50 44 53 0
37 67 41 71 44 74 0
37 79 41 83 44 86 0
37 121 41 125 44 128 0
37 191 41 195 44 198 0
37 232 41 236 44 239 0
37 254 41 258 44 261 0
46 56 50 60 53 63 0
46 92 50 96 53 99 0
46 154 50 158 53 161 0
46 191 50 195 53 198 0
46 211 50 215 53 218 0
46 232 50 236 53 239 0
56 92 60 96 63 99 0
56 106 60 110 63 113 0
56 121 60 125 63 128 0
56 137 60 141 63 144 0
56 211 60 215 63 218 0
56 254 60 258 63 261 0
67 79 71 83 74 86 0
67 106 71 110 74 113 0
67 137 71 141 74 144 0
67 172 71 176 74 179 0
67 191 71 195 74 198 0
67 211 71 215 74 218 0
79 92 83 96 86 99 0
79 106 83 110 86 113 0
79 137 83 141 86 144 0
79 154 83 158 86 161 0
79 232 83 236 86 239 0
79 254 83 258 86 261 0
92 106 96 110 99 113 0
92 154 96 158 99 161 0
92 172 96 176 99 179 0
92 191 96 195 99 198 0
92 254 96 258 99 261 0
106 121 110 125 113 128 0
106 172 110 176 113 179 0
106 211 110 215 113 218 0
106 232 110 236 113 239 0
121 172 125 176 128 179 0
121 232 125 236 128 239 0
121 254 125 258 128 261 0
137 154 141 158 144 161 0
137 211 141 215 144 218 0
137 254 141 258 144 261 0
154 172 158 176 161 179 0
154 232 158 236 161 239 0
172 191 176 195 179 198 0
191 211 195 215 198 218 0
191 254 195 258 198 261 0
211 232 215 236 218 239 0
29 37 46 33 41 50 0
29 37 67 33 41 71 0
29 37 121 33 41 125 0
29 46 56 33 50 60 0
29 46 154 33 50 158 0
29 56 121 33 60 125 0
29 56 137 33 60 141 0
29 67 137 33 71 141 0
29 67 172 33 71 176 0
29 121 172 33 125 176 0
29 137 154 33 141 158 0
29 154 172 33 158 176 0
37 46 191 41 50 195 0
37 46 232 41 50 236 0
37 67 79 41 71 83 0
37 67 191 41 71 195 0
37 79 232 41 83 236 0
37 79 254 41 83 258 0
37 121 232 41 125 236 0
37 121 254 41 125 258 0
37 191 254 41 195 258 0
46 56 92 50 60 96 0
46 56 211 50 60 215 0
46 92 154 50 96 158 0
46 92 191 50 96 195 0
46 154 232 50 158 236 0
46 191 211 50 195 215 0
46 211 232 50 215 236 0
56 92 106 60 96 110 0
56 92 254 60 96 258 0
56 106 121 60 110 125 0
56 106 211 60 110 215 0
56 121 254 60 125 258 0
56 137 211 60 141 215 0
56 137 254 60 141 258 0
67 79 106 71 83 110 0
67 79 137 71 83 141 0
67 106 172 71 110 176 0
67 106 211 71 110 215 0
67 137 211 71 141 215 0
67 172 191 71 176 195 0
67 191 211 71 195 215 0
79 92 106 83 96 110 0
79 92 154 83 96 158 0
79 92 254 83 96 258 0
79 106 232 83 110 236 0
79 137 154 83 141 158 0
79 137 254 83 141 258 0
79 154 232 83 158 236 0
92 106 172 96 110 176 0
92 154 172 96 158 176 0
92 172 191 96 176 195 0
92 191 254 96 195 258 0
106 121 172 110 125 176 0
106 121 232 110 125 236 0
106 211 232 110 215 236 0
29 37 35 43 36 44 0
29 46 35 52 36 53 0
29 56 35 62 36 63 0
29 67 35 73 36 74 0
29 121 35 127 36 128 0
29 137 35 143 36 144 0
29 154 35 160 36 161 0
29 172 35 178 36 179 0
37 46 43 52 44 53 0
37 67 43 73 44 74 0
37 79 43 85 44 86 0
37 121 43 127 44 128 0
37 191 43 197 44 198 0
37 232 43 238 44 239 0
37 254 43 260 44 261 0
46 56 52 62 53 63 0
46 92 52 98 53 99 0
46 154 52 160 53 161 0
46 191 52 197 53 198 0
46 211 52 217 53 218 0
46 232 52 238 53 239 0
56 92 62 98 63 99 0
56 106 62 112 63 113 0
56 121 62 127 63 128 0
56 137 62 143 63 144 0
56 211 62 217 63 218 0
56 254 62 260 63 261 0
67 79 73 85 74 86 0
67 106 73 112 74 113 0
67 137 73 143 74 144 0
67 172 73 178 74 179 0
67 191 73 197 74 198 0
67 211 73 217 74 218 0
79 92 85 98 86 99 0
79 106 85 112 86 113 0
79 137 85 143 86 144 0
79 154 85 160 86 161 0
79 232 85 238 86 239 0
79 254 85 260 86 261 0
92 106 98 112 99 113 0
92 154 98 160 99 161 0
92 172 98 178 99 179 0
92 191 98 197 99 198 0
92 254 98 260 99 261 0
106 121 112 127 113 128 0
106 172 112 178 113 179 0
106 211 112 217 113 218 0
106 232 112 238 113 239 0
121 172 127 178 128 179 0
121 232 127 238 128 239 0
121 254 127 260 128 261 0
137 154 143 160 144 161 0
137 211 143 217 144 218 0
137 254 143 260 144 261 0
154 172 160 178 161 179 0
154 232 160 238 161 239 0
172 191 178 197 179 198 0
191 211 197 217 198 218 0
191 254 197 260 198 261 0
211 232 217 238 218 239 0
29 37 46 35 43 52 0
29 37 67 35 43 73 0
29 37 121 35 43 127 0
29 46 56 35 52 62 0
29 46 154 35 52 160 0
29 56 121 35 62 127 0
29 56 137 35 62 143 0
29 67 137 35 73 143 0
29 67 172 35 73 178 0
29 121 172 35 127 178 0
29 137 154 35 143 160 0
29 154 172 35 160 178 0
37 46 191 43 52 197 0
37 46 232 43 52 238 0
37 67 79 43 73 85 0
37 67 191 43 73 197 0
37 79 232 43 85 238 0
37 79 254 43 85 260 0
37 121 232 43 127 238 0
37 121 254 43 127 260 0
37 191 254 43 197 260 0
46 56 92 52 62 98 0
46 56 211 52 62 217 0
46 92 154 52 98 160 0
46 92 191 52 98 197 0
46 154 232 52 160 238 0
46 191 211 52 197 217 0
46 211 232 52 217 238 0
56 92 106 62 98 112 0
56 92 254 62 98 260 0
56 106 121 62 112 127 0
56 106 211 62 112 217 0
56 121 254 62 127 260 0
56 137 211 62 143 217 0
56 137 254 62 143 260 0
67 79 106 73 85 112 0
67 79 137 73 85 143 0
67 106 172 73 112 178 0
67 106 211 73 112 217 0
67 137 211 73 143 217 0
67 172 191 73 178 197 0
67 191 211 73 197 217 0
79 92 106 85 98 112 0
79 92 154 85 98 160 0
79 92 254 85 98 260 0
79 106 232 85 112 238 0
79 137 154 85 143 160 0
79 137 254 85 143 260 0
79 154 232 85 160 238 0
92 106 172 98 112 178 0
92 154 172 98 160 178 0
92 172 191 98 178 197 0
92 191 254 98 197 260 0
106 121 172 112 127 178 0
106 121 232 112 127 238 0
106 211 232 112 217 238 0
29 37 46 36 44 53 0
29 37 67 36 44 74 0
29 37 121 36 44 128 0
29 46 56 36 53 63 0
29 46 154 36 53 161 0
29 56 121 36 63 128 0
29 56 137 36 63 144 0
29 67 137 36 74 144 0
29 67 172 36 74 179 0
29 121 172 36 128 179 0
29 137 154 36 144 161 0
29 154 172 36 161 179 0
37 46 191 44 53 198 0
37 46 232 44 53 239 0
37 67 79 44 74 86 0
37 67 191 44 74 198 0
37 79 232 44 86 239 0
37 79 254 44 86 261 0
37 121 232 44 128 239 0
37 121 254 44 128 261 0
37 191 254 44 198 261 0
46 56 92 53 63 99 0
46 56 211 53 63 218 0
46 92 154 53 99 161 0
46 92 191 53 99 198 0
46 154 232 53 161 239 0
46 191 211 53 198 218 0
46 211 232 53 218 239 0
56 92 106 63 99 113 0
56 92 254 63 99 261 0
56 106 121 63 113 128 0
56 106 211 63 113 218 0
56 121 254 63 128 261 0
56 137 211 63 144 218 0
56 137 254 63 144 261 0
67 79 106 74 86 113 0
67 79 137 74 86 144 0
67 106 172 74 113 179 0
67 106 211 74 113 218 0
67 137 211 74 144 218 0
67 172 191 74 179 198 0
67 191 211 74 198 218 0
79 92 106 86 99 113 0
79 92 154 86 99 161 0
79 92 254 86 99 261 0
79 106 232 86 113 239 0
79 137 154 86 144 161 0
79 137 254 86 144 261 0
79 154 232 86 161 239 0
92 106 172 99 113 179 0
92 154 172 99 161 179 0
92 172 191 99 179 198 0
92 191 254 99 198 261 0
106 121 172 113 128 179 0
106 121 232 113 128 239 0
106 211 232 113 218 239 0
30 31 32 34 0
38 39 40 42 0
47 48 49 51 0
57 58 59 61 0
68 69 70 72 0
80 81 82 84 0
93 94 95 97 0
107 108 109 111 0
122 123 124 126 0
138 139 140 142 0
155 156 157 159 0
173 174 175 177 0
192 193 194 196 0
212 213 214 216 0
233 234 235 237 0
255 256 257 259 0
30 38 31 39 32 40 0
30 47 31 48 32 49 0
30 57 31 58 32 59 0
30 68 31 69 32 70 0
30 122 31 123 32 124 0
30 138 31 139 32 140 0
30 155 31 156 32 157 0
30 173 31 174 32 175 0
38 47 39 48 40 49 0
38 68 39 69 40 70 0
38 80 39 81 40 82 0
38 122 39 123 40 124 0
38 192 39 193 40 194 0
38 233 39 234 40 235 0
38 255 39 256 40 257 0
47 57 48 58 49 59 0
47 93 48 94 49 95 0
47 155 48 156 49 157 0
47 192 48 193 49 194 0
47 212 48 213 49 214 0
47 233 48 234 49 235 0
57 93 58 94 59 95 0
57 107 58 108 59 109 0
57 122 58 123 59 124 0
57 138 58 139 59 140 0
57 212 58 213 59 214 0
57 255 58 256 59 257 0
68 80 69 81 70 82 0
68 107 69 108 70 109 0
68 138 69 139 70 140 0
68 173 69 174 70 175 0
68 192 69 193 70 194 0
68 212 69 213 70 214 0
80 93 81 94 82 95 0
80 107 81 108 82 109 0
80 138 81 139 82 140 0
80 155 81 156 82 157 0
80 233 81 234 82 235 0
80 255 81 256 82 257 0
93 107 94 108 95 109 0
93 155 94 156 95 157 0
93 173 94 174 95 175 0
93 192 94 193 95 194 0
93 255 94 256 95 257 0
107 122 108 123 109 124 0
107 173 108 174 109 175 0
107 212 108 213 109 214 0
107 233 108 234 109 235 0
122 173 123 174 124 175 0
122 233 123 234 124 235 0
122 255 123 256 124 257 0
138 155 139 156 140 157 0
138 212 139 213 140 214 0
138 255 139 256 140 257 0
155 173 156 174 157 175 0
155 233 156 234 157 235 0
173 192 174 193 175 194 0
192 212 193 213 194 214 0
192 255 193 256 194 257 0
212 233 213 234 214 235 0
30 31 33 34 0
38 39 41 42 0
47 48 50 51 0
57 58 60 61 0
68 69 71 72 0
80 81 83 84 0
93 94 96 97 0
107 108 110 111 0
122 123 125 126 0
138 139 141 142 0
155 156 158 159 0
173 174 176 177 0
192 193 195 196 0
212 213 215 216 0
233 234 236 237 0
255 256 258 259 0
30 38 31 39 33 41 0
30 47 31 48 33 50 0
30 57 31 58 33 60 0
30 68 31 69 33 71 0
30 122 31 123 33 125 0
30 138 31 139 33 141 0
30 155 31 156 33 158 0
30 173 31 174 33 176 0
38 47 39 48 41 50 0
38 68 39 69 41 71 0
38 80 39 81 41 83 0
38 122 39 123 41 125 0
38 192 39 193 41 195 0
38 233 39 234 41 236 0
38 255 39 256 41 258 0
47 57 48 58 50 60 0
47 93 48 94 50 96 0
47 155 48 156 50 158 0
47 192 48 193 50 195 0
47 212 48 213 50 215 0
47 233 48 234 50 236 0
57 93 58 94 60 96 0
57 107 58 108 60 110 0
57 122 58 123 60 125 0
57 138 58 139 60 141 0
57 212 58 213 60 215 0
57 255 58 256 60 258 0
68 80 69 81 71 83 0
68 107 69 108 71 110 0
68 138 69 139 71 141 0
68 173 69 174 71 176 0
68 192 69 193 71 195 0
68 212 69 213 71 215 0
80 93 81 94 83 96 0
80 107 81 108 83 110 0
80 138 81 139 83 141 0
80 155 81 156 83 158 0
80 233 81 234 83 236 0
80 255 81 256 83 258 0
93 107 94 108 96 110 0
93 155 94 156 96 158 0
93 173 94 174 96 176 0
93 192 94 193 96 195 0
93 255 94 256 96 258 0
107 122 108 123 110 125 0
107 173 108 174 110 176 0
107 212 108 213 110 215 0
107 233 108 234 110 236 0
122 173 123 174 125 176 0
122 233 123 234 125 236 0
122 255 123 256 125 258 0
138 155 139 156 141 158 0
138 212 139 213 141 215 0
138 255 139 256 141 258 0
155 173 156 174 158 176 0
155 233 156 234 158 236 0
173 192 174 193 176 195 0
192 212 193 213 195 215 0
192 255 193 256 195 258 0
212 233 213 234 215 236 0
30 38 31 39 34 42 0
30 47 31 48 34 51 0
30 57 31 58 34 61 0
30 68 31 69 34 72 0
30 122 31 123 34 126 0
30 138 31 139 34 142 0
30 155 31 156 34 159 0
30 173 31 174 34 177 0
38 47 39 48 42 51 0
38 68 39 69 42 72 0
38 80 39 81 42 84 0
38 122 39 123 42 126 0
38 192 39 193 42 196 0
38 233 39 234 42 237 0
38 255 39 256 42 259 0
47 57 48 58 51 61 0
47 93 48 94 51 97 0
47 155 48 156 51 159 0
47 192 48 193 51 196 0
47 212 48 213 51 216 0
47 233 48 234 51 237 0
57 93 58 94 61 97 0
57 107 58 108 61 111 0
57 122 58 123 61 126 0
57 138 58 139 61 142 0
57 212 58 213 61 216 0
57 255 58 256 61 259 0
68 80 69 81 72 84 0
68 107 69 108 72 111 0
68 138 69 139 72 142 0
68 173 69 174 72 177 0
68 192 69 193 72 196 0
68 212 69 213 72 216 0
80 93 81 94 84 97 0
80 107 81 108 84 111 0
80 138 81 139 84 142 0
80 155 81 156 84 159 0
80 233 81 234 84 237 0
80 255 81 256 84 259 0
93 107 94 108 97 111 0
93 155 94 156 97 159 0
93 173 94 174 97 177 0
93 192 94 193 97 196 0
93 255 94 256 97 259 0
107 122 108 123 111 126 0
107 173 108 174 111 177 0
107 212 108 213 111 216 0
107 233 108 234 111 237 0
122 173 123 174 126 177 0
122 233 123 234 126 237 0
122 255 123 256 126 259 0
138 155 139 156 142 159 0
138 212 139 213 142 216 0
138 255 139 256 142 259 0
155 173 156 174 159 177 0
155 233 156 234 159 237 0
173 192 174 193 177 196 0
192 212 193 213 196 216 0
192 255 193 256 196 259 0
212 233 213 234 216 237 0
30 38 47 31 39 48 0
30 38 68 31 39 69 0
30 38 122 31 39 123 0
30 47 57 31 48 58 0
30 47 155 31 48 156 0
30 57 122 31 58 123 0
30 57 138 31 58 139 0
30 68 138 31 69 139 0
30 68 173 31 69 174 0
30 122 173 31 123 174 0
30 138 155 31 139 156 0
30 155 173 31 156 174 0
38 47 192 39 48 193 0
38 47 233 39 48 234 0
38 68 80 39 69 81 0
38 68 192 39 69 193 0
38 80 233 39 81 234 0
38 80 255 39 81 256 0
38 122 233 39 123 234 0
38 122 255 39 123 256 0
38 192 255 39 193 256 0
47 57 93 48 58 94 0
47 57 212 48 58 213 0
47 93 155 48 94 156 0
47 93 192 48 94 193 0
47 155 233 48 156 234 0
47 192 212 48 193 213 0
47 212 233 48 213 234 0
57 93 107 58 94 108 0
57 93 255 58 94 256 0
57 107 122 58 108 123 0
57 107 212 58 108 213 0
57 122 255 58 123 256 0
57 138 212 58 139 213 0
57 138 255 58 139 256 0
68 80 107 69 81 108 0
68 80 138 69 81 139 0
68 107 173 69 108 174 0
68 107 212 69 108 213 0
68 138 212 69 139 213 0
68 173 192 69 174 193 0
68 192 212 69 193 213 0
80 93 107 81 94 108 0
80 93 155 81 94 156 0
80 93 255 81 94 256 0
80 107 233 81 108 234 0
80 138 155 81 139 156 0
80 138 255 81 139 256 0
80 155 233 81 156 234 0
93 107 173 94 108 174 0
93 155 173 94 156 174 0
93 173 192 94 174 193 0
93 192 255 94 193 256 0
107 122 173 108 123 174 0
107 122 233 108 123 234 0
107 212 233 108 213 234 0
30 38 32 40 34 42 0
30 47 32 49 34 51 0
30 57 32 59 34 61 0
30 68 32 70 34 72 0
30 122 32 124 34 126 0
30 138 32 140 34 142 0
30 155 32 157 34 159 0
30 173 32 175 34 177 0
38 47 40 49 42 51 0
38 68 40 70 42 72 0
38 80 40 82 42 84 0
38 122 40 124 42 126 0
38 192 40 194 42 196 0
38 233 40 235 42 237 0
38 255 40 257 42 259 0
47 57 49 59 51 61 0
47 93 49 95 51 97 0
47 155 49 157 51 159 0
47 192 49 194 51 196 0
47 212 49 214 51 216 0
47 233 49 235 51 237 0
57 93 59 95 61 97 0
57 107 59 109 61 111 0
57 122 59 124 61 126 0
57 138 59 140 61 142 0
57 212 59 214 61 216 0
57 255 59 257 61 259 0
68 80 70 82 72 84 0
68 107 70 109 72 111 0
68 138 70 140 72 142 0
68 173 70 175 72 177 0
68 192 70 194 72 196 0
68 212 70 214 72 216 0
80 93 82 95 84 97 0
80 107 82 109 84 111 0
80 138 82 140 84 142 0
80 155 82 157 84 159 0
80 233 82 235 84 237 0
80 255 82 257 84 259 0
93 107 95 109 97 111 0
93 155 95 157 97 159 0
93 173 95 175 97 177 0
93 192 95 194 97 196 0
93 255 95 257 97 259 0
107 122 109 124 111 126 0
107 173 109 175 111 177 0
107 212 109 214 111 216 0
107 233 109 235 111 237 0
122 173 124 175 126 177 0
122 233 124 235 126 237 0
122 255 124 257 126 259 0
138 155 140 157 142 159 0
138 212 140 214 142 216 0
138 255 140 257 142 259 0
155 173 157 175 159 177 0
155 233 157 235 159 237 0
173 192 175 194 177 196 0
192 212 194 214 196 216 0
192 255 194 257 196 259 0
212 233 214 235 216 237 0
30 38 47 32 40 49 0
30 38 68 32 40 70 0
30 38 122 32 40 124 0
30 47 57 32 49 59 0
30 47 155 32 49 157 0
30 57 122 32 59 124 0
30 57 138 32 59 140 0
30 68 138 32 70 140 0
30 68 173 32 70 175 0
30 122 173 32 124 175 0
30 138 155 32 140 157 0
30 155 173 32 157 175 0
38 47 192 40 49 194 0
38 47 233 40 49 235 0
38 68 80 40 70 82 0
38 68 192 40 70 194 0
38 80 233 40 82 235 0
38 80 255 40 82 257 0
38 122 233 40 124 235 0
38 122 255 40 124 257 0
38 192 255 40 194 257 0
47 57 93 49 59 95 0
47 57 212 49 59 214 0
47 93 155 49 95 157 0
47 93 192 49 95 194 0
47 155 233 49 157 235 0
47 192 212 49 194 214 0
47 212 233 49 214 235 0
57 93 107 59 95 109 0
57 93 255 59 95 257 0
57 107 122 59 109 124 0
57 107 212 59 109 214 0
57 122 255 59 124 257 0
57 138 212 59 140 214 0
57 138 255 59 140 257 0
68 80 107 70 82 109 0
68 80 138 70 82 140 0
68 107 173 70 109 175 0
68 107 212 70 109 214 0
68 138 212 70 140 214 0
68 173 192 70 175 194 0
68 192 212 70 194 214 0
80 93 107 82 95 109 0
80 93 155 82 95 157 0
80 93 255 82 95 257 0
80 107 233 82 109 235 0
80 138 155 82 140 157 0
80 138 255 82 140 257 0
80 155 233 82 157 235 0
93 107 173 95 109 175 0
93 155 173 95 157 175 0
93 173 192 95 175 194 0
93 192 255 95 194 257 0
107 122 173 109 124 175 0
107 122 233 109 124 235 0
107 212 233 109 214 235 0
30 38 33 41 34 42 0
30 47 33 50 34 51 0
30 57 33 60 34 61 0
30 68 33 71 34 72 0
30 122 33 125 34 126 0
30 138 33 141 34 142 0
30 155 33 158 34 159 0
30 173 33 176 34 177 0
38 47 41 50 42 51 0
38 68 41 71 42 72 0
38 80 41 83 42 84 0
38 122 41 125 42 126 0
38 192 41 195 42 196 0
38 233 41 236 42 237 0
38 255 41 258 42 259 0
47 57 50 60 51 61 0
47 93 50 96 51 97 0
47 155 50 158 51 159 0
47 192 50 195 51 196 0
47 212 50 215 51 216 0
47 233 50 236 51 237 0
57 93 60 96 61 97 0
57 107 60 110 61 111 0
57 122 60 125 61 126 0
57 138 60 141 61 142 0
57 212 60 215 61 216 0
57 255 60 258 61 259 0
68 80 71 83 72 84 0
68 107 71 110 72 111 0
68 138 71 141 72 142 0
68 173 71 176 72 177 0
68 192 71 195 72 196 0
68 212 71 215 72 216 0
80 93 83 96 84 97 0
80 107 83 110 84 111 0
80 138 83 141 84 142 0
80 155 83 158 84 159 0
80 233 83 236 84 237 0
80 255 83 258 84 259 0
93 107 96 110 97 111 0
93 155 96 158 97 159 0
93 173 96 176 97 177 0
93 192 96 195 97 196 0
93 255 96 258 97 259 0
107 122 110 125 111 126 0
107 173 110 176 111 177 0
107 212 110 215 111 216 0
107 233 110 236 111 237 0
122 173 125 176 126 177 0
122 233 125 236 126 237 0
122 255 125 258 126 259 0
138 155 141 158 142 159 0
138 212 141 215 142 216 0
138 255 141 258 142 259 0
155 173 158 176 159 177 0
155 233 158 236 159 237 0
173 192 176 195 177 196 0
192 212 195 215 196 216 0
192 255 195 258 196 259 0
212 233 215 236 216 237 0
30 38 47 33 41 50 0
30 38 68 33 41 71 0
30 38 122 33 41 125 0
30 47 57 33 50 60 0
30 47 155 33 50 158 0
30 57 122 33 60 125 0
30 57 138 33 60 141 0
30 68 138 33 71 141 0
30 68 173 33 71 176 0
30 122 173 33 125 176 0
30 138 155 33 141 158 0
30 155 173 33 158 176 0
38 47 192 41 50 195 0
38 47 233 41 50 236 0
38 68 80 41 71 83 0
38 68 192 41 71 195 0
38 80 233 41 83 236 0
38 80 255 41 83 258 0
38 122 233 41 125 236 0
38 122 255 41 125 258 0
38 192 255 41 195 258 0
47 57 93 50 60 96 0
47 57 212 50 60 215 0
47 93 155 50 96 158 0
47 93 192 50 96 195 0
47 155 233 50 158 236 0
47 192 212 50 195 215 0
47 212 233 50 215 236 0
57 93 107 60 96 110 0
57 93 255 60 96 258 0
57 107 122 60 110 125 0
57 107 212 60 110 215 0
57 122 255 60 125 258 0
57 138 212 60 141 215 0
57 138 255 60 141 258 0
68 80 107 71 83 110 0
68 80 138 71 83 141 0
68 107 173 71 110 176 0
68 107 212 71 110 215 0
68 138 212 71 141 215 0
68 173 192 71 176 195 0
68 192 212 71 195 215 0
80 93 107 83 96 110 0
80 93 155 83 96 158 0
80 93 255 83 96 258 0
80 107 233 83 110 236 0
80 138 155 83 141 158 0
80 138 255 83 141 258 0
80 155 233 83 158 236 0
93 107 173 96 110 176 0
93 155 173 96 158 176 0
93 173 192 96 176 195 0
93 192 255 96 195 258 0
107 122 173 110 125 176 0
107 122 233 110 125 236 0
107 212 233 110 215 236 0
30 38 47 34 42 51 0
30 38 68 34 42 72 0
30 38 122 34 42 126 0
30 47 57 34 51 61 0
30 47 155 34 51 159 0
30 57 122 34 61 126 0
30 57 138 34 61 142 0
30 68 138 34 72 142 0
30 68 173 34 72 177 0
30 122 173 34 126 177 0
30 138 155 34 142 159 0
30 155 173 34 159 177 0
38 47 192 42 51 196 0
38 47 233 42 51 237 0
38 68 80 42 72 84 0
38 68 192 42 72 196 0
38 80 233 42 84 237 0
38 80 255 42 84 259 0
38 122 233 42 126 237 0
38 122 255 42 126 259 0
38 192 255 42 196 259 0
47 57 93 51 61 97 0
47 57 212 51 61 216 0
47 93 155 51 97 159 0
47 93 192 51 97 196 0
47 155 233 51 159 237 0
47 192 212 51 196 216 0
47 212 233 51 216 237 0
57 93 107 61 97 111 0
57 93 255 61 97 259 0
57 107 122 61 111 126 0
57 107 212 61 111 216 0
57 122 255 61 126 259 0
57 138 212 61 142 216 0
57 138 255 61 142 259 0
68 80 107 72 84 111 0
68 80 138 72 84 142 0
68 107 173 72 111 177 0
68 107 212 72 111 216 0
68 138 212 72 142 216 0
68 173 192 72 177 196 0
68 192 212 72 196 216 0
80 93 107 84 97 111 0
80 93 155 84 97 159 0
80 93 255 84 97 259 0
80 107 233 84 111 237 0
80 138 155 84 142 159 0
80 138 255 84 142 259 0
80 155 233 84 159 237 0
93 107 173 97 111 177 0
93 155 173 97 159 177 0
93 173 192 97 177 196 0
93 192 255 97 196 259 0
107 122 173 111 126 177 0
107 122 233 111 126 237 0
107 212 233 111 216 237 0
18 31 32 21 34 35 0
18 39 40 21 42 43 0
18 48 49 21 51 52 0
18 58 59 21 61 62 0
18 69 70 21 72 73 0
18 81 82 21 84 85 0
18 94 95 21 97 98 0
18 108 109 21 111 112 0
18 123 124 21 126 127 0
18 139 140 21 142 143 0
18 156 157 21 159 160 0
18 174 175 21 177 178 0
18 193 194 21 196 197 0
18 213 214 21 216 217 0
18 234 235 21 237 238 0
18 256 257 21 259 260 0
31 39 32 40 34 42 0
31 48 32 49 34 51 0
31 58 32 59 34 61 0
31 69 32 70 34 72 0
31 123 32 124 34 126 0
31 139 32 140 34 142 0
31 156 32 157 34 159 0
31 174 32 175 34 177 0
39 48 40 49 42 51 0
39 69 40 70 42 72 0
39 81 40 82 42 84 0
39 123 40 124 42 126 0
39 193 40 194 42 196 0
39 234 40 235 42 237 0
39 256 40 257 42 259 0
48 58 49 59 51 61 0
48 94 49 95 51 97 0
48 156 49 157 51 159 0
48 193 49 194 51 196 0
48 213 49 214 51 216 0
48 234 49 235 51 237 0
58 94 59 95 61 97 0
58 108 59 109 61 111 0
58 123 59 124 61 126 0
58 139 59 140 61 142 0
58 213 59 214 61 216 0
58 256 59 257 61 259 0
69 81 70 82 72 84 0
69 108 70 109 72 111 0
69 139 70 140 72 142 0
69 174 70 175 72 177 0
69 193 70 194 72 196 0
69 213 70 214 72 216 0
81 94 82 95 84 97 0
81 108 82 109 84 111 0
81 139 82 140 84 142 0
81 156 82 157 84 159 0
81 234 82 235 84 237 0
81 256 82 257 84 259 0
94 108 95 109 97 111 0
94 156 95 157 97 159 0
94 174 95 175 97 177 0
94 193 95 194 97 196 0
94 256 95 257 97 259 0
108 123 109 124 111 126 0
108 174 109 175 111 177 0
108 213 109 214 111 216 0
108 234 109 235 111 237 0
123 174 124 175 126 177 0
123 234 124 235 126 237 0
123 256 124 257 126 259 0
139 156 140 157 142 159 0
139 213 140 214 142 216 0
139 256 140 257 142 259 0
156 174 157 175 159 177 0
156 234 157 235 159 237 0
174 193 175 194 177 196 0
193 213 194 214 196 216 0
193 256 194 257 196 259 0
213 234 214 235 216 237 0
18 31 39 32 40 35 43 0
18 31 48 32 49 35 52 0
18 31 58 32 59 35 62 0
18 31 69 32 70 35 73 0
18 31 123 32 124 35 127 0
18 31 139 32 140 35 143 0
18 31 156 32 157 35 160 0
18 31 174 32 175 35 178 0
18 39 48 40 49 43 52 0
18 39 69 40 70 43 73 0
18 39 81 40 82 43 85 0
18 39 123 40 124 43 127 0
18 39 193 40 194 43 197 0
18 39 234 40 235 43 238 0
18 39 256 40 257 43 260 0
18 48 58 49 59 52 62 0
18 48 94 49 95 52 98 0
18 48 156 49 157 52 160 0
18 48 193 49 194 52 197 0
18 48 213 49 214 52 217 0
18 48 234 49 235 52 238 0
18 58 94 59 95 62 98 0
18 58 108 59 109 62 112 0
18 58 123 59 124 62 127 0
18 58 139 59 140 62 143 0
18 58 213 59 214 62 217 0
18 58 256 59 257 62 260 0
18 69 81 70 82 73 85 0
18 69 108 70 109 73 112 0
18 69 139 70 140 73 143 0
18 69 174 70 175 73 178 0
18 69 193 70 194 73 197 0
18 69 213 70 214 73 217 0
18 81 94 82 95 85 98 0
18 81 108 82 109 85 112 0
18 81 139 82 140 85 143 0
18 81 156 82 157 85 160 0
18 81 234 82 235 85 238 0
18 81 256 82 257 85 260 0
18 94 108 95 109 98 112 0
18 94 156 95 157 98 160 0
18 94 174 95 175 98 178 0
18 94 193 95 194 98 197 0
18 94 256 95 257 98 260 0
18 108 123 109 124 112 127 0
18 108 174 109 175 112 178 0
18 108 213 109 214 112 217 0
18 108 234 109 235 112 238 0
18 123 174 124 175 127 178 0
18 123 234 124 235 127 238 0
18 123 256 124 257 127 260 0
18 139 156 140 157 143 160 0
18 139 213 140 214 143 217 0
18 139 256 140 257 143 260 0
18 156 174 157 175 160 178 0
18 156 234 157 235 160 238 0
18 174 193 175 194 178 197 0
18 193 213 194 214 197 217 0
18 193 256 194 257 197 260 0
18 213 234 214 235 217 238 0
31 39 48 32 40 49 0
31 39 69 32 40 70 0
31 39 123 32 40 124 0
31 48 58 32 49 59 0
31 48 156 32 49 157 0
31 58 123 32 59 124 0
31 58 139 32 59 140 0
31 69 139 32 70 140 0
31 69 174 32 70 175 0
31 123 174 32 124 175 0
31 139 156 32 140 157 0
31 156 174 32 157 175 0
39 48 193 40 49 194 0
39 48 234 40 49 235 0
39 69 81 40 70 82 0
39 69 193 40 70 194 0
39 81 234 40 82 235 0
39 81 256 40 82 257 0
39 123 234 40 124 235 0
39 123 256 40 124 257 0
39 193 256 40 194 257 0
48 58 94 49 59 95 0
48 58 213 49 59 214 0
48 94 156 49 95 157 0
48 94 193 49 95 194 0
48 156 234 49 157 235 0
48 193 213 49 194 214 0
48 213 234 49 214 235 0
58 94 108 59 95 109 0
58 94 256 59 95 257 0
58 108 123 59 109 124 0
58 108 213 59 109 214 0
58 123 256 59 124 257 0
58 139 213 59 140 214 0
58 139 256 59 140 257 0
69 81 108 70 82 109 0
69 81 139 70 82 140 0
69 108 174 70 109 175 0
69 108 213 70 109 214 0
69 139 213 70 140 214 0
69 174 193 70 175 194 0
69 193 213 70 194 214 0
81 94 108 82 95 109 0
81 94 156 82 95 157 0
81 94 256 82 95 257 0
81 108 234 82 109 235 0
81 139 156 82 140 157 0
81 139 256 82 140 257 0
81 156 234 82 157 235 0
94 108 174 95 109 175 0
94 156 174 95 157 175 0
94 174 193 95 175 194 0
94 193 256 95 194 257 0
108 123 174 109 124 175 0
108 123 234 109 124 235 0
108 213 234 109 214 235 0
31 39 33 41 34 42 0
31 48 33 50 34 51 0
31 58 33 60 34 61 0
31 69 33 71 34 72 0
31 123 33 125 34 126 0
31 139 33 141 34 142 0
31 156 33 158 34 159 0
31 174 33 176 34 177 0
39 48 41 50 42 51 0
39 69 41 71 42 72 0
39 81 41 83 42 84 0
39 123 41 125 42 126 0
39 193 41 195 42 196 0
39 234 41 236 42 237 0
39 256 41 258 42 259 0
48 58 50 60 51 61 0
48 94 50 96 51 97 0
48 156 50 158 51 159 0
48 193 50 195 51 196 0
48 213 50 215 51 216 0
48 234 50 236 51 237 0
58 94 60 96 61 97 0
58 108 60 110 61 111 0
58 123 60 125 61 126 0
58 139 60 141 61 142 0
58 213 60 215 61 216 0
58 256 60 258 61 259 0
69 81 71 83 72 84 0
69 108 71 110 72 111 0
69 139 71 141 72 142 0
69 174 71 176 72 177 0
69 193 71 195 72 196 0
69 213 71 215 72 216 0
81 94 83 96 84 97 0
81 108 83 110 84 111 0
81 139 83 141 84 142 0
81 156 83 158 84 159 0
81 234 83 236 84 237 0
81 256 83 258 84 259 0
94 108 96 110 97 111 0
94 156 96 158 97 159 0
94 174 96 176 97 177 0
94 193 96 195 97 196 0
94 256 96 258 97 259 0
108 123 110 125 111 126 0
108 174 110 176 111 177 0
108 213 110 215 111 216 0
108 234 110 236 111 237 0
123 174 125 176 126 177 0
123 234 125 236 126 237 0
123 256 125 258 126 259 0
139 156 141 158 142 159 0
139 213 141 215 142 216 0
139 256 141 258 142 259 0
156 174 158 176 159 177 0
156 234 158 236 159 237 0
174 193 176 195 177 196 0
193 213 195 215 196 216 0
193 256 195 258 196 259 0
213 234 215 236 216 237 0
31 39 48 33 41 50 0
31 39 69 33 41 71 0
31 39 123 33 41 125 0
31 48 58 33 50 60 0
31 48 156 33 50 158 0
31 58 123 33 60 125 0
31 58 139 33 60 141 0
31 69 139 33 71 141 0
31 69 174 33 71 176 0
31 123 174 33 125 176 0
31 139 156 33 141 158 0
31 156 174 33 158 176 0
39 48 193 41 50 195 0
39 48 234 41 50 236 0
39 69 81 41 71 83 0
39 69 193 41 71 195 0
39 81 234 41 83 236 0
39 81 256 41 83 258 0
39 123 234 41 125 236 0
39 123 256 41 125 258 0
39 193 256 41 195 258 0
48 58 94 50 60 96 0
48 58 213 50 60 215 0
48 94 156 50 96 158 0
48 94 193 50 96 195 0
48 156 234 50 158 236 0
48 193 213 50 195 215 0
48 213 234 50 215 236 0
58 94 108 60 96 110 0
58 94 256 60 96 258 0
58 108 123 60 110 125 0
58 108 213 60 110 215 0
58 123 256 60 125 258 0
58 139 213 60 141 215 0
58 139 256 60 141 258 0
69 81 108 71 83 110 0
69 81 139 71 83 141 0
69 108 174 71 110 176 0
69 108 213 71 110 215 0
69 139 213 71 141 215 0
69 174 193 71 176 195 0
69 193 213 71 195 215 0
81 94 108 83 96 110 0
81 94 156 83 96 158 0
81 94 256 83 96 258 0
81 108 234 83 110 236 0
81 139 156 83 141 158 0
81 139 256 83 141 258 0
81 156 234 83 158 236 0
94 108 174 96 110 176 0
94 156 174 96 158 176 0
94 174 193 96 176 195 0
94 193 256 96 195 258 0
108 123 174 110 125 176 0
108 123 234 110 125 236 0
108 213 234 110 215 236 0
18 31 39 21 34 42 35 43 0
18 31 48 21 34 51 35 52 0
18 31 58 21 34 61 35 62 0
18 31 69 21 34 72 35 73 0
18 31 123 21 34 126 35 127 0
18 31 139 21 34 142 35 143 0
18 31 156 21 34 159 35 160 0
18 31 174 21 34 177 35 178 0
18 39 48 21 42 51 43 52 0
18 39 69 21 42 72 43 73 0
18 39 81 21 42 84 43 85 0
18 39 123 21 42 126 43 127 0
18 39 193 21 42 196 43 197 0
18 39 234 21 42 237 43 238 0
18 39 256 21 42 259 43 260 0
18 48 58 21 51 61 52 62 0
18 48 94 21 51 97 52 98 0
18 48 156 21 51 159 52 160 0
18 48 193 21 51 196 52 197 0
18 48 213 21 51 216 52 217 0
18 48 234 21 51 237 52 238 0
18 58 94 21 61 97 62 98 0
18 58 108 21 61 111 62 112 0
18 58 123 21 61 126 62 127 0
18 58 139 21 61 142 62 143 0
18 58 213 21 61 216 62 217 0
18 58 256 21 61 259 62 260 0
18 69 81 21 72 84 73 85 0
18 69 108 21 72 111 73 112 0
18 69 139 21 72 142 73 143 0
18 69 174 21 72 177 73 178 0
18 69 193 21 72 196 73 197 0
18 69 213 21 72 216 73 217 0
18 81 94 21 84 97 85 98 0
18 81 108 21 84 111 85 112 0
18 81 139 21 84 142 85 143 0
18 81 156 21 84 159 85 160 0
18 81 234 21 84 237 85 238 0
18 81 256 21 84 259 85 260 0
18 94 108 21 97 111 98 112 0
18 94 156 21 97 159 98 160 0
18 94 174 21 97 177 98 178 0
18 94 193 21 97 196 98 197 0
18 94 256 21 97 259 98 260 0
18 108 123 21 111 126 112 127 0
18 108 174 21 111 177 112 178 0
18 108 213 21 111 216 112 217 0
18 108 234 21 111 237 112 238 0
18 123 174 21 126 177 127 178 0
18 123 234 21 126 237 127 238 0
18 123 256 21 126 259 127 260 0
18 139 156 21 142 159 143 160 0
18 139 213 21 142 216 143 217 0
18 139 256 21 142 259 143 260 0
18 156 174 21 159 177 160 178 0
18 156 234 21 159 237 160 238 0
18 174 193 21 177 196 178 197 0
18 193 213 21 196 216 197 217 0
18 193 256 21 196 259 197 260 0
18 213 234 21 216 237 217 238 0
31 39 48 34 42 51 0
31 39 69 34 42 72 0
31 39 123 34 42 126 0
31 48 58 34 51 61 0
31 48 156 34 51 159 0
31 58 123 34 61 126 0
31 58 139 34 61 142 0
31 69 139 34 72 142 0
31 69 174 34 72 177 0
31 123 174 34 126 177 0
31 139 156 34 142 159 0
31 156 174 34 159 177 0
39 48 193 42 51 196 0
39 48 234 42 51 237 0
39 69 81 42 72 84 0
39 69 193 42 72 196 0
39 81 234 42 84 237 0
39 81 256 42 84 259 0
39 123 234 42 126 237 0
39 123 256 42 126 259 0
39 193 256 42 196 259 0
48 58 94 51 61 97 0
48 58 213 51 61 216 0
48 94 156 51 97 159 0
48 94 193 51 97 196 0
48 156 234 51 159 237 0
48 193 213 51 196 216 0
48 213 234 51 216 237 0
58 94 108 61 97 111 0
58 94 256 61 97 259 0
58 108 123 61 111 126 0
58 108 213 61 111 216 0
58 123 256 61 126 259 0
58 139 213 61 142 216 0
58 139 256 61 142 259 0
69 81 108 72 84 111 0
69 81 139 72 84 142 0
69 108 174 72 111 177 0
69 108 213 72 111 216 0
69 139 213 72 142 216 0
69 174 193 72 177 196 0
69 193 213 72 196 216 0
81 94 108 84 97 111 0
81 94 156 84 97 159 0
81 94 256 84 97 259 0
81 108 234 84 111 237 0
81 139 156 84 142 159 0
81 139 256 84 142 259 0
81 156 234 84 159 237 0
94 108 174 97 111 177 0
94 156 174 97 159 177 0
94 174 193 97 177 196 0
94 193 256 97 196 259 0
108 123 174 111 126 177 0
108 123 234 111 126 237 0
108 213 234 111 216 237 0
18 31 39 48 35 43 52 0
18 31 39 69 35 43 73 0
18 31 39 123 35 43 127 0
18 31 48 58 35 52 62 0
18 31 48 156 35 52 160 0
18 31 58 123 35 62 127 0
18 31 58 139 35 62 143 0
18 31 69 139 35 73 143 0
18 31 69 174 35 73 178 0
18 31 123 174 35 127 178 0
18 31 139 156 35 143 160 0
18 31 156 174 35 160 178 0
18 39 48 193 43 52 197 0
18 39 48 234 43 52 238 0
18 39 69 81 43 73 85 0
18 39 69 193 43 73 197 0
18 39 81 234 43 85 238 0
18 39 81 256 43 85 260 0
18 39 123 234 43 127 238 0
18 39 123 256 43 127 260 0
18 39 193 256 43 197 260 0
18 48 58 94 52 62 98 0
18 48 58 213 52 62 217 0
18 48 94 156 52 98 160 0
18 48 94 193 52 98 197 0
18 48 156 234 52 160 238 0
18 48 193 213 52 197 217 0
18 48 213 234 52 217 238 0
18 58 94 108 62 98 112 0
18 58 94 256 62 98 260 0
18 58 108 123 62 112 127 0
18 58 108 213 62 112 217 0
18 58 123 256 62 127 260 0
18 58 139 213 62 143 217 0
18 58 139 256 62 143 260 0
18 69 81 108 73 85 112 0
18 69 81 139 73 85 143 0
18 69 108 174 73 112 178 0
18 69 108 213 73 112 217 0
18 69 139 213 73 143 217 0
18 69 174 193 73 178 197 0
18 69 193 213 73 197 217 0
18 81 94 108 85 98 112 0
18 81 94 156 85 98 160 0
18 81 94 256 85 98 260 0
18 81 108 234 85 112 238 0
18 81 139 156 85 143 160 0
18 81 139 256 85 143 260 0
18 81 156 234 85 160 238 0
18 94 108 174 98 112 178 0
18 94 156 174 98 160 178 0
18 94 174 193 98 178 197 0
18 94 193 256 98 197 260 0
18 108 123 174 112 127 178 0
18 108 123 234 112 127 238 0
18 108 213 234 112 217 238 0
25 32 21 27 34 35 36 0
25 40 21 27 42 43 44 0
25 49 21 27 51 52 53 0
25 59 21 27 61 62 63 0
25 70 21 27 72 73 74 0
25 82 21 27 84 85 86 0
25 95 21 27 97 98 99 0
25 109 21 27 111 112 113 0
25 124 21 27 126 127 128 0
25 140 21 27 142 143 144 0
25 157 21 27 159 160 161 0
25 175 21 27 177 178 179 0
25 194 21 27 196 197 198 0
25 214 21 27 216 217 218 0
25 235 21 27 237 238 239 0
25 257 21 27 259 260 261 0
32 40 21 34 42 35 43 0
32 49 21 34 51 35 52 0
32 59 21 34 61 35 62 0
32 70 21 34 72 35 73 0
32 124 21 34 126 35 127 0
32 140 21 34 142 35 143 0
32 157 21 34 159 35 160 0
32 175 21 34 177 35 178 0
40 49 21 42 51 43 52 0
40 70 21 42 72 43 73 0
40 82 21 42 84 43 85 0
40 124 21 42 126 43 127 0
40 194 21 42 196 43 197 0
40 235 21 42 237 43 238 0
40 257 21 42 259 43 260 0
49 59 21 51 61 52 62 0
49 95 21 51 97 52 98 0
49 157 21 51 159 52 160 0
49 194 21 51 196 52 197 0
49 214 21 51 216 52 217 0
49 235 21 51 237 52 238 0
59 95 21 61 97 62 98 0
59 109 21 61 111 62 112 0
59 124 21 61 126 62 127 0
59 140 21 61 142 62 143 0
59 214 21 61 216 62 217 0
59 257 21 61 259 62 260 0
70 82 21 72 84 73 85 0
70 109 21 72 111 73 112 0
70 140 21 72 142 73 143 0
70 175 21 72 177 73 178 0
70 194 21 72 196 73 197 0
70 214 21 72 216 73 217 0
82 95 21 84 97 85 98 0
82 109 21 84 111 85 112 0
82 140 21 84 142 85 143 0
82 157 21 84 159 85 160 0
82 235 21 84 237 85 238 0
82 257 21 84 259 85 260 0
95 109 21 97 111 98 112 0
95 157 21 97 159 98 160 0
95 175 21 97 177 98 178 0
95 194 21 97 196 98 197 0
95 257 21 97 259 98 260 0
109 124 21 111 126 112 127 0
109 175 21 111 177 112 178 0
109 214 21 111 216 112 217 0
109 235 21 111 237 112 238 0
124 175 21 126 177 127 178 0
124 235 21 126 237 127 238 0
124 257 21 126 259 127 260 0
140 157 21 142 159 143 160 0
140 214 21 142 216 143 217 0
140 257 21 142 259 143 260 0
157 175 21 159 177 160 178 0
157 235 21 159 237 160 238 0
175 194 21 177 196 178 197 0
194 214 21 196 216 197 217 0
194 257 21 196 259 197 260 0
214 235 21 216 237 217 238 0
25 32 40 27 34 42 36 44 0
25 32 49 27 34 51 36 53 0
25 32 59 27 34 61 36 63 0
25 32 70 27 34 72 36 74 0
25 32 124 27 34 126 36 128 0
25 32 140 27 34 142 36 144 0
25 32 157 27 34 159 36 161 0
25 32 175 27 34 177 36 179 0
25 40 49 27 42 51 44 53 0
25 40 70 27 42 72 44 74 0
25 40 82 27 42 84 44 86 0
25 40 124 27 42 126 44 128 0
25 40 194 27 42 196 44 198 0
25 40 235 27 42 237 44 239 0
25 40 257 27 42 259 44 261 0
25 49 59 27 51 61 53 63 0
25 49 95 27 51 97 53 99 0
25 49 157 27 51 159 53 161 0
25 49 194 27 51 196 53 198 0
25 49 214 27 51 216 53 218 0
25 49 235 27 51 237 53 239 0
25 59 95 27 61 97 63 99 0
25 59 109 27 61 111 63 113 0
25 59 124 27 61 126 63 128 0
25 59 140 27 61 142 63 144 0
25 59 214 27 61 216 63 218 0
25 59 257 27 61 259 63 261 0
25 70 82 27 72 84 74 86 0
25 70 109 27 72 111 74 113 0
25 70 140 27 72 142 74 144 0
25 70 175 27 72 177 74 179 0
25 70 194 27 72 196 74 198 0
25 70 214 27 72 216 74 218 0
25 82 95 27 84 97 86 99 0
25 82 109 27 84 111 86 113 0
25 82 140 27 84 142 86 144 0
25 82 157 27 84 159 86 161 0
25 82 235 27 84 237 86 239 0
25 82 257 27 84 259 86 261 0
25 95 109 27 97 111 99 113 0
25 95 157 27 97 159 99 161 0
25 95 175 27 97 177 99 179 0
25 95 194 27 97 196 99 198 0
25 95 257 27 97 259 99 261 0
25 109 124 27 111 126 113 128 0
25 109 175 27 111 177 113 179 0
25 109 214 27 111 216 113 218 0
25 109 235 27 111 237 113 239 0
25 124 175 27 126 177 128 179 0
25 124 235 27 126 237 128 239 0
25 124 257 27 126 259 128 261 0
25 140 157 27 142 159 144 161 0
25 140 214 27 142 216 144 218 0
25 140 257 27 142 259 144 261 0
25 157 175 27 159 177 161 179 0
25 157 235 27 159 237 161 239 0
25 175 194 27 177 196 179 198 0
25 194 214 27 196 216 198 218 0
25 194 257 27 196 259 198 261 0
25 214 235 27 216 237 218 239 0
32 40 49 34 42 51 0
32 40 70 34 42 72 0
32 40 124 34 42 126 0
32 49 59 34 51 61 0
32 49 157 34 51 159 0
32 59 124 34 61 126 0
32 59 140 34 61 142 0
32 70 140 34 72 142 0
32 70 175 34 72 177 0
32 124 175 34 126 177 0
32 140 157 34 142 159 0
32 157 175 34 159 177 0
40 49 194 42 51 196 0
40 49 235 42 51 237 0
40 70 82 42 72 84 0
40 70 194 42 72 196 0
40 82 235 42 84 237 0
40 82 257 42 84 259 0
40 124 235 42 126 237 0
40 124 257 42 126 259 0
40 194 257 42 196 259 0
49 59 95 51 61 97 0
49 59 214 51 61 216 0
49 95 157 51 97 159 0
49 95 194 51 97 196 0
49 157 235 51 159 237 0
49 194 214 51 196 216 0
49 214 235 51 216 237 0
59 95 109 61 97 111 0
59 95 257 61 97 259 0
59 109 124 61 111 126 0
59 109 214 61 111 216 0
59 124 257 61 126 259 0
59 140 214 61 142 216 0
59 140 257 61 142 259 0
70 82 109 72 84 111 0
70 82 140 72 84 142 0
70 109 175 72 111 177 0
70 109 214 72 111 216 0
70 140 214 72 142 216 0
70 175 194 72 177 196 0
70 194 214 72 196 216 0
82 95 109 84 97 111 0
82 95 157 84 97 159 0
82 95 257 84 97 259 0
82 109 235 84 111 237 0
82 140 157 84 142 159 0
82 140 257 84 142 259 0
82 157 235 84 159 237 0
95 109 175 97 111 177 0
95 157 175 97 159 177 0
95 175 194 97 177 196 0
95 194 257 97 196 259 0
109 124 175 111 126 177 0
109 124 235 111 126 237 0
109 214 235 111 216 237 0
25 32 40 35 43 36 44 0
25 32 49 35 52 36 53 0
25 32 59 35 62 36 63 0
25 32 70 35 73 36 74 0
25 32 124 35 127 36 128 0
25 32 140 35 143 36 144 0
25 32 157 35 160 36 161 0
25 32 175 35 178 36 179 0
25 40 49 43 52 44 53 0
25 40 70 43 73 44 74 0
25 40 82 43 85 44 86 0
25 40 124 43 127 44 128 0
25 40 194 43 197 44 198 0
25 40 235 43 238 44 239 0
25 40 257 43 260 44 261 0
25 49 59 52 62 53 63 0
25 49 95 52 98 53 99 0
25 49 157 52 160 53 161 0
25 49 194 52 197 53 198 0
25 49 214 52 217 53 218 0
25 49 235 52 238 53 239 0
25 59 95 62 98 63 99 0
25 59 109 62 112 63 113 0
25 59 124 62 127 63 128 0
25 59 140 62 143 63 144 0
25 59 214 62 217 63 218 0
25 59 257 62 260 63 261 0
25 70 82 73 85 74 86 0
25 70 109 73 112 74 113 0
25 70 140 73 143 74 144 0
25 70 175 73 178 74 179 0
25 70 194 73 197 74 198 0
25 70 214 73 217 74 218 0
25 82 95 85 98 86 99 0
25 82 109 85 112 86 113 0
25 82 140 85 143 86 144 0
25 82 157 85 160 86 161 0
25 82 235 85 238 86 239 0
25 82 257 85 260 86 261 0
25 95 109 98 112 99 113 0
25 95 157 98 160 99 161 0
25 95 175 98 178 99 179 0
25 95 194 98 197 99 198 0
25 95 257 98 260 99 261 0
25 109 124 112 127 113 128 0
25 109 175 112 178 113 179 0
25 109 214 112 217 113 218 0
25 109 235 112 238 113 239 0
25 124 175 127 178 128 179 0
25 124 235 127 238 128 239 0
25 124 257 127 260 128 261 0
25 140 157 143 160 144 161 0
25 140 214 143 217 144 218 0
25 140 257 143 260 144 261 0
25 157 175 160 178 161 179 0
25 157 235 160 238 161 239 0
25 175 194 178 197 179 198 0
25 194 214 197 217 198 218 0
25 194 257 197 260 198 261 0
25 214 235 217 238 218 239 0
32 40 49 35 43 52 0
32 40 70 35 43 73 0
32 40 124 35 43 127 0
32 49 59 35 52 62 0
32 49 157 35 52 160 0
32 59 124 35 62 127 0
32 59 140 35 62 143 0
32 70 140 35 73 143 0
32 70 175 35 73 178 0
32 124 175 35 127 178 0
32 140 157 35 143 160 0
32 157 175 35 160 178 0
40 49 194 43 52 197 0
40 49 235 43 52 238 0
40 70 82 43 73 85 0
40 70 194 43 73 197 0
40 82 235 43 85 238 0
40 82 257 43 85 260 0
40 124 235 43 127 238 0
40 124 257 43 127 260 0
40 194 257 43 197 260 0
49 59 95 52 62 98 0
49 59 214 52 62 217 0
49 95 157 52 98 160 0
49 95 194 52 98 197 0
49 157 235 52 160 238 0
49 194 214 52 197 217 0
49 214 235 52 217 238 0
59 95 109 62 98 112 0
59 95 257 62 98 260 0
59 109 124 62 112 127 0
59 109 214 62 112 217 0
59 124 257 62 127 260 0
59 140 214 62 143 217 0
59 140 257 62 143 260 0
70 82 109 73 85 112 0
70 82 140 73 85 143 0
70 109 175 73 112 178 0
70 109 214 73 112 217 0
70 140 214 73 143 217 0
70 175 194 73 178 197 0
70 194 214 73 197 217 0
82 95 109 85 98 112 0
82 95 157 85 98 160 0
82 95 257 85 98 260 0
82 109 235 85 112 238 0
82 140 157 85 143 160 0
82 140 257 85 143 260 0
82 157 235 85 160 238 0
95 109 175 98 112 178 0
95 157 175 98 160 178 0
95 175 194 98 178 197 0
95 194 257 98 197 260 0
109 124 175 112 127 178 0
109 124 235 112 127 238 0
109 214 235 112 217 238 0
25 32 40 49 36 44 53 0
25 32 40 70 36 44 74 0
25 32 40 124 36 44 128 0
25 32 49 59 36 53 63 0
25 32 49 157 36 53 161 0
25 32 59 124 36 63 128 0
25 32 59 140 36 63 144 0
25 32 70 140 36 74 144 0
25 32 70 175 36 74 179 0
25 32 124 175 36 128 179 0
25 32 140 157 36 144 161 0
25 32 157 175 36 161 179 0
25 40 49 194 44 53 198 0
25 40 49 235 44 53 239 0
25 40 70 82 44 74 86 0
25 40 70 194 44 74 198 0
25 40 82 235 44 86 239 0
25 40 82 257 44 86 261 0
25 40 124 235 44 128 239 0
25 40 124 257 44 128 261 0
25 40 194 257 44 198 261 0
25 49 59 95 53 63 99 0
25 49 59 214 53 63 218 0
25 49 95 157 53 99 161 0
25 49 95 194 53 99 198 0
25 49 157 235 53 161 239 0
25 49 194 214 53 198 218 0
25 49 214 235 53 218 239 0
25 59 95 109 63 99 113 0
25 59 95 257 63 99 261 0
25 59 109 124 63 113 128 0
25 59 109 214 63 113 218 0
25 59 124 257 63 128 261 0
25 59 140 214 63 144 218 0
25 59 140 257 63 144 261 0
25 70 82 109 74 86 113 0
25 70 82 140 74 86 144 0
25 70 109 175 74 113 179 0
25 70 109 214 74 113 218 0
25 70 140 214 74 144 218 0
25 70 175 194 74 179 198 0
25 70 194 214 74 198 218 0
25 82 95 109 86 99 113 0
25 82 95 157 86 99 161 0
25 82 95 257 86 99 261 0
25 82 109 235 86 113 239 0
25 82 140 157 86 144 161 0
25 82 140 257 86 144 261 0
25 82 157 235 86 161 239 0
25 95 109 175 99 113 179 0
25 95 157 175 99 161 179 0
25 95 175 194 99 179 198 0
25 95 194 257 99 198 261 0
25 109 124 175 113 128 179 0
25 109 124 235 113 128 239 0
25 109 214 235 113 218 239 0
33 41 27 34 42 36 44 0
33 50 27 34 51 36 53 0
33 60 27 34 61 36 63 0
33 71 27 34 72 36 74 0
33 125 27 34 126 36 128 0
33 141 27 34 142 36 144 0
33 158 27 34 159 36 161 0
33 176 27 34 177 36 179 0
41 50 27 42 51 44 53 0
41 71 27 42 72 44 74 0
41 83 27 42 84 44 86 0
41 125 27 42 126 44 128 0
41 195 27 42 196 44 198 0
41 236 27 42 237 44 239 0
41 258 27 42 259 44 261 0
50 60 27 51 61 53 63 0
50 96 27 51 97 53 99 0
50 158 27 51 159 53 161 0
50 195 27 51 196 53 198 0
50 215 27 51 216 53 218 0
50 236 27 51 237 53 239 0
60 96 27 61 97 63 99 0
60 110 27 61 111 63 113 0
60 125 27 61 126 63 128 0
60 141 27 61 142 63 144 0
60 215 27 61 216 63 218 0
60 258 27 61 259 63 261 0
71 83 27 72 84 74 86 0
71 110 27 72 111 74 113 0
71 141 27 72 142 74 144 0
71 176 27 72 177 74 179 0
71 195 27 72 196 74 198 0
71 215 27 72 216 74 218 0
83 96 27 84 97 86 99 0
83 110 27 84 111 86 113 0
83 141 27 84 142 86 144 0
83 158 27 84 159 86 161 0
83 236 27 84 237 86 239 0
83 258 27 84 259 86 261 0
96 110 27 97 111 99 113 0
96 158 27 97 159 99 161 0
96 176 27 97 177 99 179 0
96 195 27 97 196 99 198 0
96 258 27 97 259 99 261 0
110 125 27 111 126 113 128 0
110 176 27 111 177 113 179 0
110 215 27 111 216 113 218 0
110 236 27 111 237 113 239 0
125 176 27 126 177 128 179 0
125 236 27 126 237 128 239 0
125 258 27 126 259 128 261 0
141 158 27 142 159 144 161 0
141 215 27 142 216 144 218 0
141 258 27 142 259 144 261 0
158 176 27 159 177 161 179 0
158 236 27 159 237 161 239 0
176 195 27 177 196 179 198 0
195 215 27 196 216 198 218 0
195 258 27 196 259 198 261 0
215 236 27 216 237 218 239 0
33 41 50 34 42 51 0
33 41 71 34 42 72 0
33 41 125 34 42 126 0
33 50 60 34 51 61 0
33 50 158 34 51 159 0
33 60 125 34 61 126 0
33 60 141 34 61 142 0
33 71 141 34 72 142 0
33 71 176 34 72 177 0
33 125 176 34 126 177 0
33 141 158 34 142 159 0
33 158 176 34 159 177 0
41 50 195 42 51 196 0
41 50 236 42 51 237 0
41 71 83 42 72 84 0
41 71 195 42 72 196 0
41 83 236 42 84 237 0
41 83 258 42 84 259 0
41 125 236 42 126 237 0
41 125 258 42 126 259 0
41 195 258 42 196 259 0
50 60 96 51 61 97 0
50 60 215 51 61 216 0
50 96 158 51 97 159 0
50 96 195 51 97 196 0
50 158 236 51 159 237 0
50 195 215 51 196 216 0
50 215 236 51 216 237 0
60 96 110 61 97 111 0
60 96 258 61 97 259 0
60 110 125 61 111 126 0
60 110 215 61 111 216 0
60 125 258 61 126 259 0
60 141 215 61 142 216 0
60 141 258 61 142 259 0
71 83 110 72 84 111 0
71 83 141 72 84 142 0
71 110 176 72 111 177 0
71 110 215 72 111 216 0
71 141 215 72 142 216 0
71 176 195 72 177 196 0
71 195 215 72 196 216 0
83 96 110 84 97 111 0
83 96 158 84 97 159 0
83 96 258 84 97 259 0
83 110 236 84 111 237 0
83 141 158 84 142 159 0
83 141 258 84 142 259 0
83 158 236 84 159 237 0
96 110 176 97 111 177 0
96 158 176 97 159 177 0
96 176 195 97 177 196 0
96 195 258 97 196 259 0
110 125 176 111 126 177 0
110 125 236 111 126 237 0
110 215 236 111 216 237 0
33 41 50 36 44 53 0
33 41 71 36 44 74 0
33 41 125 36 44 128 0
33 50 60 36 53 63 0
33 50 158 36 53 161 0
33 60 125 36 63 128 0
33 60 141 36 63 144 0
33 71 141 36 74 144 0
33 71 176 36 74 179 0
33 125 176 36 128 179 0
33 141 158 36 144 161 0
33 158 176 36 161 179 0
41 50 195 44 53 198 0
41 50 236 44 53 239 0
41 71 83 44 74 86 0
41 71 195 44 74 198 0
41 83 236 44 86 239 0
41 83 258 44 86 261 0
41 125 236 44 128 239 0
41 125 258 44 128 261 0
41 195 258 44 198 261 0
50 60 96 53 63 99 0
50 60 215 53 63 218 0
50 96 158 53 99 161 0
50 96 195 53 99 198 0
50 158 236 53 161 239 0
50 195 215 53 198 218 0
50 215 236 53 218 239 0
60 96 110 63 99 113 0
60 96 258 63 99 261 0
60 110 125 63 113 128 0
60 110 215 63 113 218 0
60 125 258 63 128 261 0
60 141 215 63 144 218 0
60 141 258 63 144 261 0
71 83 110 74 86 113 0
71 83 141 74 86 144 0
71 110 176 74 113 179 0
71 110 215 74 113 218 0
71 141 215 74 144 218 0
71 176 195 74 179 198 0
71 195 215 74 198 218 0
83 96 110 86 99 113 0
83 96 158 86 99 161 0
83 96 258 86 99 261 0
83 110 236 86 113 239 0
83 141 158 86 144 161 0
83 141 258 86 144 261 0
83 158 236 86 161 239 0
96 110 176 99 113 179 0
96 158 176 99 161 179 0
96 176 195 99 179 198 0
96 195 258 99 198 261 0
110 125 176 113 128 179 0
110 125 236 113 128 239 0
110 215 236 113 218 239 0
21 27 34 42 35 43 36 44 0
21 27 34 51 35 52 36 53 0
21 27 34 61 35 62 36 63 0
21 27 34 72 35 73 36 74 0
21 27 34 126 35 127 36 128 0
21 27 34 142 35 143 36 144 0
21 27 34 159 35 160 36 161 0
21 27 34 177 35 178 36 179 0
21 27 42 51 43 52 44 53 0
21 27 42 72 43 73 44 74 0
21 27 42 84 43 85 44 86 0
21 27 42 126 43 127 44 128 0
21 27 42 196 43 197 44 198 0
21 27 42 237 43 238 44 239 0
21 27 42 259 43 260 44 261 0
21 27 51 61 52 62 53 63 0
21 27 51 97 52 98 53 99 0
21 27 51 159 52 160 53 161 0
21 27 51 196 52 197 53 198 0
21 27 51 216 52 217 53 218 0
21 27 51 237 52 238 53 239 0
21 27 61 97 62 98 63 99 0
21 27 61 111 62 112 63 113 0
21 27 61 126 62 127 63 128 0
21 27 61 142 62 143 63 144 0
21 27 61 216 62 217 63 218 0
21 27 61 259 62 260 63 261 0
21 27 72 84 73 85 74 86 0
21 27 72 111 73 112 74 113 0
21 27 72 142 73 143 74 144 0
21 27 72 177 73 178 74 179 0
21 27 72 196 73 197 74 198 0
21 27 72 216 73 217 74 218 0
21 27 84 97 85 98 86 99 0
21 27 84 111 85 112 86 113 0
21 27 84 142 85 143 86 144 0
21 27 84 159 85 160 86 161 0
21 27 84 237 85 238 86 239 0
21 27 84 259 85 260 86 261 0
21 27 97 111 98 112 99 113 0
21 27 97 159 98 160 99 161 0
21 27 97 177 98 178 99 179 0
21 27 97 196 98 197 99 198 0
21 27 97 259 98 260 99 261 0
21 27 111 126 112 127 113 128 0
21 27 111 177 112 178 113 179 0
21 27 111 216 112 217 113 218 0
21 27 111 237 112 238 113 239 0
21 27 126 177 127 178 128 179 0
21 27 126 237 127 238 128 239 0
21 27 126 259 127 260 128 261 0
21 27 142 159 143 160 144 161 0
21 27 142 216 143 217 144 218 0
21 27 142 259 143 260 144 261 0
21 27 159 177 160 178 161 179 0
21 27 159 237 160 238 161 239 0
21 27 177 196 178 197 179 198 0
21 27 196 216 197 217 198 218 0
21 27 196 259 197 260 198 261 0
21 27 216 237 217 238 218 239 0
21 34 42 51 35 43 52 0
21 34 42 72 35 43 73 0
21 34 42 126 35 43 127 0
21 34 51 61 35 52 62 0
21 34 51 159 35 52 160 0
21 34 61 126 35 62 127 0
21 34 61 142 35 62 143 0
21 34 72 142 35 73 143 0
21 34 72 177 35 73 178 0
21 34 126 177 35 127 178 0
21 34 142 159 35 143 160 0
21 34 159 177 35 160 178 0
21 42 51 196 43 52 197 0
21 42 51 237 43 52 238 0
21 42 72 84 43 73 85 0
21 42 72 196 43 73 197 0
21 42 84 237 43 85 238 0
21 42 84 259 43 85 260 0
21 42 126 237 43 127 238 0
21 42 126 259 43 127 260 0
21 42 196 259 43 197 260 0
21 51 61 97 52 62 98 0
21 51 61 216 52 62 217 0
21 51 97 159 52 98 160 0
21 51 97 196 52 98 197 0
21 51 159 237 52 160 238 0
21 51 196 216 52 197 217 0
21 51 216 237 52 217 238 0
21 61 97 111 62 98 112 0
21 61 97 259 62 98 260 0
21 61 111 126 62 112 127 0
21 61 111 216 62 112 217 0
21 61 126 259 62 127 260 0
21 61 142 216 62 143 217 0
21 61 142 259 62 143 260 0
21 72 84 111 73 85 112 0
21 72 84 142 73 85 143 0
21 72 111 177 73 112 178 0
21 72 111 216 73 112 217 0
21 72 142 216 73 143 217 0
21 72 177 196 73 178 197 0
21 72 196 216 73 197 217 0
21 84 97 111 85 98 112 0
21 84 97 159 85 98 160 0
21 84 97 259 85 98 260 0
21 84 111 237 85 112 238 0
21 84 142 159 85 143 160 0
21 84 142 259 85 143 260 0
21 84 159 237 85 160 238 0
21 97 111 177 98 112 178 0
21 97 159 177 98 160 178 0
21 97 177 196 98 178 197 0
21 97 196 259 98 197 260 0
21 111 126 177 112 127 178 0
21 111 126 237 112 127 238 0
21 111 216 237 112 217 238 0
27 34 42 51 36 44 53 0
27 34 42 72 36 44 74 0
27 34 42 126 36 44 128 0
27 34 51 61 36 53 63 0
27 34 51 159 36 53 161 0
27 34 61 126 36 63 128 0
27 34 61 142 36 63 144 0
27 34 72 142 36 74 144 0
27 34 72 177 36 74 179 0
27 34 126 177 36 128 179 0
27 34 142 159 36 144 161 0
27 34 159 177 36 161 179 0
27 42 51 196 44 53 198 0
27 42 51 237 44 53 239 0
27 42 72 84 44 74 86 0
27 42 72 196 44 74 198 0
27 42 84 237 44 86 239 0
27 42 84 259 44 86 261 0
27 42 126 237 44 128 239 0
27 42 126 259 44 128 261 0
27 42 196 259 44 198 261 0
27 51 61 97 53 63 99 0
27 51 61 216 53 63 218 0
27 51 97 159 53 99 161 0
27 51 97 196 53 99 198 0
27 51 159 237 53 161 239 0
27 51 196 216 53 198 218 0
27 51 216 237 53 218 239 0
27 61 97 111 63 99 113 0
27 61 97 259 63 99 261 0
27 61 111 126 63 113 128 0
27 61 111 216 63 113 218 0
27 61 126 259 63 128 261 0
27 61 142 216 63 144 218 0
27 61 142 259 63 144 261 0
27 72 84 111 74 86 113 0
27 72 84 142 74 86 144 0
27 72 111 177 74 113 179 0
27 72 111 216 74 113 218 0
27 72 142 216 74 144 218 0
27 72 177 196 74 179 198 0
27 72 196 216 74 198 218 0
27 84 97 111 86 99 113 0
27 84 97 159 86 99 161 0
27 84 97 259 86 99 261 0
27 84 111 237 86 113 239 0
27 84 142 159 86 144 161 0
27 84 142 259 86 144 261 0
27 84 159 237 86 161 239 0
27 97 111 177 99 113 179 0
27 97 159 177 99 161 179 0
27 97 177 196 99 179 198 0
27 97 196 259 99 198 261 0
27 111 126 177 113 128 179 0
27 111 126 237 113 128 239 0
27 111 216 237 113 218 239 0
35 43 52 36 44 53 0
35 43 73 36 44 74 0
35 43 127 36 44 128 0
35 52 62 36 53 63 0
35 52 160 36 53 161 0
35 62 127 36 63 128 0
35 62 143 36 63 144 0
35 73 143 36 74 144 0
35 73 178 36 74 179 0
35 127 178 36 128 179 0
35 143 160 36 144 161 0
35 160 178 36 161 179 0
43 52 197 44 53 198 0
43 52 238 44 53 239 0
43 73 85 44 74 86 0
43 73 197 44 74 198 0
43 85 238 44 86 239 0
43 85 260 44 86 261 0
43 127 238 44 128 239 0
43 127 260 44 128 261 0
43 197 260 44 198 261 0
52 62 98 53 63 99 0
52 62 217 53 63 218 0
52 98 160 53 99 161 0
52 98 197 53 99 198 0
52 160 238 53 161 239 0
52 197 217 53 198 218 0
52 217 238 53 218 239 0
62 98 112 63 99 113 0
62 98 260 63 99 261 0
62 112 127 63 113 128 0
62 112 217 63 113 218 0
62 127 260 63 128 261 0
62 143 217 63 144 218 0
62 143 260 63 144 261 0
73 85 112 74 86 113 0
73 85 143 74 86 144 0
73 112 178 74 113 179 0
73 112 217 74 113 218 0
73 143 217 74 144 218 0
73 178 197 74 179 198 0
73 197 217 74 198 218 0
85 98 112 86 99 113 0
85 98 160 86 99 161 0
85 98 260 86 99 261 0
85 112 238 86 113 239 0
85 143 160 86 144 161 0
85 143 260 86 144 261 0
85 160 238 86 161 239 0
98 112 178 99 113 179 0
98 160 178 99 161 179 0
98 178 197 99 179 198 0
98 197 260 99 198 261 0
112 127 178 113 128 179 0
112 127 238 113 128 239 0
112 217 238 113 218 239 0
