p cnf 276 3448
-2 -29 -79 -31 -81 0
-2 -29 -92 -31 -94 0
-2 -29 -106 -31 -108 0
-2 -29 -191 -31 -193 0
-2 -29 -211 -31 -213 0
-2 -29 -232 -31 -234 0
-2 -29 -254 -31 -256 0
-2 -37 -56 -39 -58 0
-2 -37 -67 -39 -69 0
-2 -37 -106 -39 -108 0
-2 -37 -154 -39 -156 0
-2 -37 -172 -39 -174 0
-2 -37 -232 -39 -234 0
-2 -37 -254 -39 -256 0
-2 -46 -56 -48 -58 0
-2 -46 -67 -48 -69 0
-2 -46 -92 -48 -94 0
-2 -46 -121 -48 -123 0
-2 -46 -137 -48 -139 0
-2 -46 -191 -48 -193 0
-2 -46 -211 -48 -213 0
-2 -56 -67 -58 -69 0
-2 -56 -137 -58 -139 0
-2 -56 -154 -58 -156 0
-2 -56 -191 -58 -193 0
-2 -56 -254 -58 -256 0
-2 -67 -121 -69 -123 0
-2 -67 -172 -69 -174 0
-2 -67 -211 -69 -213 0
-2 -67 -232 -69 -234 0
-2 -79 -92 -81 -94 0
-2 -79 -106 -81 -108 0
-2 -79 -121 -81 -123 0
-2 -79 -137 -81 -139 0
-2 -79 -154 -81 -156 0
-2 -79 -172 -81 -174 0
-2 -92 -137 -94 -139 0
-2 -92 -172 -94 -174 0
-2 -92 -211 -94 -213 0
-2 -92 -254 -94 -256 0
-2 -106 -121 -108 -123 0
-2 -106 -154 -108 -156 0
-2 -106 -191 -108 -193 0
-2 -106 -232 -108 -234 0
-2 -121 -137 -123 -139 0
-2 -121 -172 -123 -174 0
-2 -121 -191 -123 -193 0
-2 -121 -232 -123 -234 0
-2 -137 -154 -139 -156 0
-2 -137 -232 -139 -234 0
-2 -137 -254 -139 -256 0
-2 -154 -172 -156 -174 0
-2 -154 -191 -156 -193 0
-2 -154 -211 -156 -213 0
-2 -172 -211 -174 -213 0
-2 -172 -254 -174 -256 0
-2 -191 -211 -193 -213 0
-2 -191 -254 -193 -256 0
-2 -211 -232 -213 -234 0
-2 -232 -254 -234 -256 0
-29 -79 -32 -82 0
-29 -92 -32 -95 0
-29 -106 -32 -109 0
-29 -191 -32 -194 0
-29 -211 -32 -214 0
-29 -232 -32 -235 0
-29 -254 -32 -257 0
-37 -56 -40 -59 0
-37 -67 -40 -70 0
-37 -106 -40 -109 0
-37 -154 -40 -157 0
-37 -172 -40 -175 0
-37 -232 -40 -235 0
-37 -254 -40 -257 0
-46 -56 -49 -59 0
-46 -67 -49 -70 0
-46 -92 -49 -95 0
-46 -121 -49 -124 0
-46 -137 -49 -140 0
-46 -191 -49 -194 0
-46 -211 -49 -214 0
-56 -67 -59 -70 0
-56 -137 -59 -140 0
-56 -154 -59 -157 0
-56 -191 -59 -194 0
-56 -254 -59 -257 0
-67 -121 -70 -124 0
-67 -172 -70 -175 0
-67 -211 -70 -214 0
-67 -232 -70 -235 0
-79 -92 -82 -95 0
-79 -106 -82 -109 0
-79 -121 -82 -124 0
-79 -137 -82 -140 0
-79 -154 -82 -157 0
-79 -172 -82 -175 0
-92 -137 -95 -140 0
-92 -172 -95 -175 0
-92 -211 -95 -214 0
-92 -254 -95 -257 0
-106 -121 -109 -124 0
-106 -154 -109 -157 0
-106 -191 -109 -194 0
-106 -232 -109 -235 0
-121 -137 -124 -140 0
-121 -172 -124 -175 0
-121 -191 -124 -194 0
-121 -232 -124 -235 0
-137 -154 -140 -157 0
-137 -232 -140 -235 0
-137 -254 -140 -257 0
-154 -172 -157 -175 0
-154 -191 -157 -194 0
-154 -211 -157 -214 0
-172 -211 -175 -214 0
-172 -254 -175 -257 0
-191 -211 -194 -214 0
-191 -254 -194 -257 0
-211 -232 -214 -235 0
-232 -254 -235 -257 0
-29 -79 -36 -86 0
-29 -92 -36 -99 0
-29 -106 -36 -113 0
-29 -191 -36 -198 0
-29 -211 -36 -218 0
-29 -232 -36 -239 0
-29 -254 -36 -261 0
-37 -56 -44 -63 0
-37 -67 -44 -74 0
-37 -106 -44 -113 0
-37 -154 -44 -161 0
-37 -172 -44 -179 0
-37 -232 -44 -239 0
-37 -254 -44 -261 0
-46 -56 -53 -63 0
-46 -67 -53 -74 0
-46 -92 -53 -99 0
-46 -121 -53 -128 0
-46 -137 -53 -144 0
-46 -191 -53 -198 0
-46 -211 -53 -218 0
-56 -67 -63 -74 0
-56 -137 -63 -144 0
-56 -154 -63 -161 0
-56 -191 -63 -198 0
-56 -254 -63 -261 0
-67 -121 -74 -128 0
-67 -172 -74 -179 0
-67 -211 -74 -218 0
-67 -232 -74 -239 0
-79 -92 -86 -99 0
-79 -106 -86 -113 0
-79 -121 -86 -128 0
-79 -137 -86 -144 0
-79 -154 -86 -161 0
-79 -172 -86 -179 0
-92 -137 -99 -144 0
-92 -172 -99 -179 0
-92 -211 -99 -218 0
-92 -254 -99 -261 0
-106 -121 -113 -128 0
-106 -154 -113 -161 0
-106 -191 -113 -198 0
-106 -232 -113 -239 0
-121 -137 -128 -144 0
-121 -172 -128 -179 0
-121 -191 -128 -198 0
-121 -232 -128 -239 0
-137 -154 -144 -161 0
-137 -232 -144 -239 0
-137 -254 -144 -261 0
-154 -172 -161 -179 0
-154 -191 -161 -198 0
-154 -211 -161 -218 0
-172 -211 -179 -218 0
-172 -254 -179 -261 0
-191 -211 -198 -218 0
-191 -254 -198 -261 0
-211 -232 -218 -239 0
-232 -254 -239 -261 0
-29 -79 -92 0
-29 -79 -106 0
-29 -92 -211 0
-29 -92 -254 0
-29 -106 -191 0
-29 -106 -232 0
-29 -191 -211 0
-29 -191 -254 0
-29 -211 -232 0
-29 -232 -254 0
-37 -56 -67 0
-37 -56 -154 0
-37 -56 -254 0
-37 -67 -172 0
-37 -67 -232 0
-37 -106 -154 0
-37 -106 -232 0
-37 -154 -172 0
-37 -172 -254 0
-37 -232 -254 0
-46 -56 -67 0
-46 -56 -137 0
-46 -56 -191 0
-46 -67 -121 0
-46 -67 -211 0
-46 -92 -137 0
-46 -92 -211 0
-46 -121 -137 0
-46 -121 -191 0
-46 -191 -211 0
-56 -137 -154 0
-56 -137 -254 0
-56 -154 -191 0
-56 -191 -254 0
-67 -121 -172 0
-67 -121 -232 0
-67 -172 -211 0
-67 -211 -232 0
-79 -92 -137 0
-79 -92 -172 0
-79 -106 -121 0
-79 -106 -154 0
-79 -121 -137 0
-79 -121 -172 0
-79 -137 -154 0
-79 -154 -172 0
-92 -137 -254 0
-92 -172 -211 0
-92 -172 -254 0
-106 -121 -191 0
-106 -121 -232 0
-106 -154 -191 0
-121 -137 -232 0
-137 -232 -254 0
-154 -172 -211 0
-154 -191 -211 0
-30 -80 -31 -81 0
-30 -93 -31 -94 0
-30 -107 -31 -108 0
-30 -192 -31 -193 0
-30 -212 -31 -213 0
-30 -233 -31 -234 0
-30 -255 -31 -256 0
-38 -57 -39 -58 0
-38 -68 -39 -69 0
-38 -107 -39 -108 0
-38 -155 -39 -156 0
-38 -173 -39 -174 0
-38 -233 -39 -234 0
-38 -255 -39 -256 0
-47 -57 -48 -58 0
-47 -68 -48 -69 0
-47 -93 -48 -94 0
-47 -122 -48 -123 0
-47 -138 -48 -139 0
-47 -192 -48 -193 0
-47 -212 -48 -213 0
-57 -68 -58 -69 0
-57 -138 -58 -139 0
-57 -155 -58 -156 0
-57 -192 -58 -193 0
-57 -255 -58 -256 0
-68 -122 -69 -123 0
-68 -173 -69 -174 0
-68 -212 -69 -213 0
-68 -233 -69 -234 0
-80 -93 -81 -94 0
-80 -107 -81 -108 0
-80 -122 -81 -123 0
-80 -138 -81 -139 0
-80 -155 -81 -156 0
-80 -173 -81 -174 0
-93 -138 -94 -139 0
-93 -173 -94 -174 0
-93 -212 -94 -213 0
-93 -255 -94 -256 0
-107 -122 -108 -123 0
-107 -155 -108 -156 0
-107 -192 -108 -193 0
-107 -233 -108 -234 0
-122 -138 -123 -139 0
-122 -173 -123 -174 0
-122 -192 -123 -193 0
-122 -233 -123 -234 0
-138 -155 -139 -156 0
-138 -233 -139 -234 0
-138 -255 -139 -256 0
-155 -173 -156 -174 0
-155 -192 -156 -193 0
-155 -212 -156 -213 0
-173 -212 -174 -213 0
-173 -255 -174 -256 0
-192 -212 -193 -213 0
-192 -255 -193 -256 0
-212 -233 -213 -234 0
-233 -255 -234 -256 0
-5 -30 -80 -32 -82 0
-5 -30 -93 -32 -95 0
-5 -30 -107 -32 -109 0
-5 -30 -192 -32 -194 0
-5 -30 -212 -32 -214 0
-5 -30 -233 -32 -235 0
-5 -30 -255 -32 -257 0
-5 -38 -57 -40 -59 0
-5 -38 -68 -40 -70 0
-5 -38 -107 -40 -109 0
-5 -38 -155 -40 -157 0
-5 -38 -173 -40 -175 0
-5 -38 -233 -40 -235 0
-5 -38 -255 -40 -257 0
-5 -47 -57 -49 -59 0
-5 -47 -68 -49 -70 0
-5 -47 -93 -49 -95 0
-5 -47 -122 -49 -124 0
-5 -47 -138 -49 -140 0
-5 -47 -192 -49 -194 0
-5 -47 -212 -49 -214 0
-5 -57 -68 -59 -70 0
-5 -57 -138 -59 -140 0
-5 -57 -155 -59 -157 0
-5 -57 -192 -59 -194 0
-5 -57 -255 -59 -257 0
-5 -68 -122 -70 -124 0
-5 -68 -173 -70 -175 0
-5 -68 -212 -70 -214 0
-5 -68 -233 -70 -235 0
-5 -80 -93 -82 -95 0
-5 -80 -107 -82 -109 0
-5 -80 -122 -82 -124 0
-5 -80 -138 -82 -140 0
-5 -80 -155 -82 -157 0
-5 -80 -173 -82 -175 0
-5 -93 -138 -95 -140 0
-5 -93 -173 -95 -175 0
-5 -93 -212 -95 -214 0
-5 -93 -255 -95 -257 0
-5 -107 -122 -109 -124 0
-5 -107 -155 -109 -157 0
-5 -107 -192 -109 -194 0
-5 -107 -233 -109 -235 0
-5 -122 -138 -124 -140 0
-5 -122 -173 -124 -175 0
-5 -122 -192 -124 -194 0
-5 -122 -233 -124 -235 0
-5 -138 -155 -140 -157 0
-5 -138 -233 -140 -235 0
-5 -138 -255 -140 -257 0
-5 -155 -173 -157 -175 0
-5 -155 -192 -157 -194 0
-5 -155 -212 -157 -214 0
-5 -173 -212 -175 -214 0
-5 -173 -255 -175 -257 0
-5 -192 -212 -194 -214 0
-5 -192 -255 -194 -257 0
-5 -212 -233 -214 -235 0
-5 -233 -255 -235 -257 0
-30 -80 -35 -85 0
-30 -93 -35 -98 0
-30 -107 -35 -112 0
-30 -192 -35 -197 0
-30 -212 -35 -217 0
-30 -233 -35 -238 0
-30 -255 -35 -260 0
-38 -57 -43 -62 0
-38 -68 -43 -73 0
-38 -107 -43 -112 0
-38 -155 -43 -160 0
-38 -173 -43 -178 0
-38 -233 -43 -238 0
-38 -255 -43 -260 0
-47 -57 -52 -62 0
-47 -68 -52 -73 0
-47 -93 -52 -98 0
-47 -122 -52 -127 0
-47 -138 -52 -143 0
-47 -192 -52 -197 0
-47 -212 -52 -217 0
-57 -68 -62 -73 0
-57 -138 -62 -143 0
-57 -155 -62 -160 0
-57 -192 -62 -197 0
-57 -255 -62 -260 0
-68 -122 -73 -127 0
-68 -173 -73 -178 0
-68 -212 -73 -217 0
-68 -233 -73 -238 0
-80 -93 -85 -98 0
-80 -107 -85 -112 0
-80 -122 -85 -127 0
-80 -138 -85 -143 0
-80 -155 -85 -160 0
-80 -173 -85 -178 0
-93 -138 -98 -143 0
-93 -173 -98 -178 0
-93 -212 -98 -217 0
-93 -255 -98 -260 0
-107 -122 -112 -127 0
-107 -155 -112 -160 0
-107 -192 -112 -197 0
-107 -233 -112 -238 0
-122 -138 -127 -143 0
-122 -173 -127 -178 0
-122 -192 -127 -197 0
-122 -233 -127 -238 0
-138 -155 -143 -160 0
-138 -233 -143 -238 0
-138 -255 -143 -260 0
-155 -173 -160 -178 0
-155 -192 -160 -197 0
-155 -212 -160 -217 0
-173 -212 -178 -217 0
-173 -255 -178 -260 0
-192 -212 -197 -217 0
-192 -255 -197 -260 0
-212 -233 -217 -238 0
-233 -255 -238 -260 0
-30 -80 -93 0
-30 -80 -107 0
-30 -93 -212 0
-30 -93 -255 0
-30 -107 -192 0
-30 -107 -233 0
-30 -192 -212 0
-30 -192 -255 0
-30 -212 -233 0
-30 -233 -255 0
-38 -57 -68 0
-38 -57 -155 0
-38 -57 -255 0
-38 -68 -173 0
-38 -68 -233 0
-38 -107 -155 0
-38 -107 -233 0
-38 -155 -173 0
-38 -173 -255 0
-38 -233 -255 0
-47 -57 -68 0
-47 -57 -138 0
-47 -57 -192 0
-47 -68 -122 0
-47 -68 -212 0
-47 -93 -138 0
-47 -93 -212 0
-47 -122 -138 0
-47 -122 -192 0
-47 -192 -212 0
-57 -138 -155 0
-57 -138 -255 0
-57 -155 -192 0
-57 -192 -255 0
-68 -122 -173 0
-68 -122 -233 0
-68 -173 -212 0
-68 -212 -233 0
-80 -93 -138 0
-80 -93 -173 0
-80 -107 -122 0
-80 -107 -155 0
-80 -122 -138 0
-80 -122 -173 0
-80 -138 -155 0
-80 -155 -173 0
-93 -138 -255 0
-93 -173 -212 0
-93 -173 -255 0
-107 -122 -192 0
-107 -122 -233 0
-107 -155 -192 0
-122 -138 -233 0
-138 -233 -255 0
-155 -173 -212 0
-155 -192 -212 0
-13 -31 -81 -34 -84 0
-13 -31 -94 -34 -97 0
-13 -31 -108 -34 -111 0
-13 -31 -193 -34 -196 0
-13 -31 -213 -34 -216 0
-13 -31 -234 -34 -237 0
-13 -31 -256 -34 -259 0
-13 -39 -58 -42 -61 0
-13 -39 -69 -42 -72 0
-13 -39 -108 -42 -111 0
-13 -39 -156 -42 -159 0
-13 -39 -174 -42 -177 0
-13 -39 -234 -42 -237 0
-13 -39 -256 -42 -259 0
-13 -48 -58 -51 -61 0
-13 -48 -69 -51 -72 0
-13 -48 -94 -51 -97 0
-13 -48 -123 -51 -126 0
-13 -48 -139 -51 -142 0
-13 -48 -193 -51 -196 0
-13 -48 -213 -51 -216 0
-13 -58 -69 -61 -72 0
-13 -58 -139 -61 -142 0
-13 -58 -156 -61 -159 0
-13 -58 -193 -61 -196 0
-13 -58 -256 -61 -259 0
-13 -69 -123 -72 -126 0
-13 -69 -174 -72 -177 0
-13 -69 -213 -72 -216 0
-13 -69 -234 -72 -237 0
-13 -81 -94 -84 -97 0
-13 -81 -108 -84 -111 0
-13 -81 -123 -84 -126 0
-13 -81 -139 -84 -142 0
-13 -81 -156 -84 -159 0
-13 -81 -174 -84 -177 0
-13 -94 -139 -97 -142 0
-13 -94 -174 -97 -177 0
-13 -94 -213 -97 -216 0
-13 -94 -256 -97 -259 0
-13 -108 -123 -111 -126 0
-13 -108 -156 -111 -159 0
-13 -108 -193 -111 -196 0
-13 -108 -234 -111 -237 0
-13 -123 -139 -126 -142 0
-13 -123 -174 -126 -177 0
-13 -123 -193 -126 -196 0
-13 -123 -234 -126 -237 0
-13 -139 -156 -142 -159 0
-13 -139 -234 -142 -237 0
-13 -139 -256 -142 -259 0
-13 -156 -174 -159 -177 0
-13 -156 -193 -159 -196 0
-13 -156 -213 -159 -216 0
-13 -174 -213 -177 -216 0
-13 -174 -256 -177 -259 0
-13 -193 -213 -196 -216 0
-13 -193 -256 -196 -259 0
-13 -213 -234 -216 -237 0
-13 -234 -256 -237 -259 0
-31 -81 -94 0
-31 -81 -108 0
-31 -94 -213 0
-31 -94 -256 0
-31 -108 -193 0
-31 -108 -234 0
-31 -193 -213 0
-31 -193 -256 0
-31 -213 -234 0
-31 -234 -256 0
-39 -58 -69 0
-39 -58 -156 0
-39 -58 -256 0
-39 -69 -174 0
-39 -69 -234 0
-39 -108 -156 0
-39 -108 -234 0
-39 -156 -174 0
-39 -174 -256 0
-39 -234 -256 0
-48 -58 -69 0
-48 -58 -139 0
-48 -58 -193 0
-48 -69 -123 0
-48 -69 -213 0
-48 -94 -139 0
-48 -94 -213 0
-48 -123 -139 0
-48 -123 -193 0
-48 -193 -213 0
-58 -139 -156 0
-58 -139 -256 0
-58 -156 -193 0
-58 -193 -256 0
-69 -123 -174 0
-69 -123 -234 0
-69 -174 -213 0
-69 -213 -234 0
-81 -94 -139 0
-81 -94 -174 0
-81 -108 -123 0
-81 -108 -156 0
-81 -123 -139 0
-81 -123 -174 0
-81 -139 -156 0
-81 -156 -174 0
-94 -139 -256 0
-94 -174 -213 0
-94 -174 -256 0
-108 -123 -193 0
-108 -123 -234 0
-108 -156 -193 0
-123 -139 -234 0
-139 -234 -256 0
-156 -174 -213 0
-156 -193 -213 0
-32 -82 -33 -83 0
-32 -95 -33 -96 0
-32 -109 -33 -110 0
-32 -194 -33 -195 0
-32 -214 -33 -215 0
-32 -235 -33 -236 0
-32 -257 -33 -258 0
-40 -59 -41 -60 0
-40 -70 -41 -71 0
-40 -109 -41 -110 0
-40 -157 -41 -158 0
-40 -175 -41 -176 0
-40 -235 -41 -236 0
-40 -257 -41 -258 0
-49 -59 -50 -60 0
-49 -70 -50 -71 0
-49 -95 -50 -96 0
-49 -124 -50 -125 0
-49 -140 -50 -141 0
-49 -194 -50 -195 0
-49 -214 -50 -215 0
-59 -70 -60 -71 0
-59 -140 -60 -141 0
-59 -157 -60 -158 0
-59 -194 -60 -195 0
-59 -257 -60 -258 0
-70 -124 -71 -125 0
-70 -175 -71 -176 0
-70 -214 -71 -215 0
-70 -235 -71 -236 0
-82 -95 -83 -96 0
-82 -109 -83 -110 0
-82 -124 -83 -125 0
-82 -140 -83 -141 0
-82 -157 -83 -158 0
-82 -175 -83 -176 0
-95 -140 -96 -141 0
-95 -175 -96 -176 0
-95 -214 -96 -215 0
-95 -257 -96 -258 0
-109 -124 -110 -125 0
-109 -157 -110 -158 0
-109 -194 -110 -195 0
-109 -235 -110 -236 0
-124 -140 -125 -141 0
-124 -175 -125 -176 0
-124 -194 -125 -195 0
-124 -235 -125 -236 0
-140 -157 -141 -158 0
-140 -235 -141 -236 0
-140 -257 -141 -258 0
-157 -175 -158 -176 0
-157 -194 -158 -195 0
-157 -214 -158 -215 0
-175 -214 -176 -215 0
-175 -257 -176 -258 0
-194 -214 -195 -215 0
-194 -257 -195 -258 0
-214 -235 -215 -236 0
-235 -257 -236 -258 0
-32 -82 -95 0
-32 -82 -109 0
-32 -95 -214 0
-32 -95 -257 0
-32 -109 -194 0
-32 -109 -235 0
-32 -194 -214 0
-32 -194 -257 0
-32 -214 -235 0
-32 -235 -257 0
-40 -59 -70 0
-40 -59 -157 0
-40 -59 -257 0
-40 -70 -175 0
-40 -70 -235 0
-40 -109 -157 0
-40 -109 -235 0
-40 -157 -175 0
-40 -175 -257 0
-40 -235 -257 0
-49 -59 -70 0
-49 -59 -140 0
-49 -59 -194 0
-49 -70 -124 0
-49 -70 -214 0
-49 -95 -140 0
-49 -95 -214 0
-49 -124 -140 0
-49 -124 -194 0
-49 -194 -214 0
-59 -140 -157 0
-59 -140 -257 0
-59 -157 -194 0
-59 -194 -257 0
-70 -124 -175 0
-70 -124 -235 0
-70 -175 -214 0
-70 -214 -235 0
-82 -95 -140 0
-82 -95 -175 0
-82 -109 -124 0
-82 -109 -157 0
-82 -124 -140 0
-82 -124 -175 0
-82 -140 -157 0
-82 -157 -175 0
-95 -140 -257 0
-95 -175 -214 0
-95 -175 -257 0
-109 -124 -194 0
-109 -124 -235 0
-109 -157 -194 0
-124 -140 -235 0
-140 -235 -257 0
-157 -175 -214 0
-157 -194 -214 0
-33 -83 -35 -85 0
-33 -96 -35 -98 0
-33 -110 -35 -112 0
-33 -195 -35 -197 0
-33 -215 -35 -217 0
-33 -236 -35 -238 0
-33 -258 -35 -260 0
-41 -60 -43 -62 0
-41 -71 -43 -73 0
-41 -110 -43 -112 0
-41 -158 -43 -160 0
-41 -176 -43 -178 0
-41 -236 -43 -238 0
-41 -258 -43 -260 0
-50 -60 -52 -62 0
-50 -71 -52 -73 0
-50 -96 -52 -98 0
-50 -125 -52 -127 0
-50 -141 -52 -143 0
-50 -195 -52 -197 0
-50 -215 -52 -217 0
-60 -71 -62 -73 0
-60 -141 -62 -143 0
-60 -158 -62 -160 0
-60 -195 -62 -197 0
-60 -258 -62 -260 0
-71 -125 -73 -127 0
-71 -176 -73 -178 0
-71 -215 -73 -217 0
-71 -236 -73 -238 0
-83 -96 -85 -98 0
-83 -110 -85 -112 0
-83 -125 -85 -127 0
-83 -141 -85 -143 0
-83 -158 -85 -160 0
-83 -176 -85 -178 0
-96 -141 -98 -143 0
-96 -176 -98 -178 0
-96 -215 -98 -217 0
-96 -258 -98 -260 0
-110 -125 -112 -127 0
-110 -158 -112 -160 0
-110 -195 -112 -197 0
-110 -236 -112 -238 0
-125 -141 -127 -143 0
-125 -176 -127 -178 0
-125 -195 -127 -197 0
-125 -236 -127 -238 0
-141 -158 -143 -160 0
-141 -236 -143 -238 0
-141 -258 -143 -260 0
-158 -176 -160 -178 0
-158 -195 -160 -197 0
-158 -215 -160 -217 0
-176 -215 -178 -217 0
-176 -258 -178 -260 0
-195 -215 -197 -217 0
-195 -258 -197 -260 0
-215 -236 -217 -238 0
-236 -258 -238 -260 0
-33 -83 -36 -86 0
-33 -96 -36 -99 0
-33 -110 -36 -113 0
-33 -195 -36 -198 0
-33 -215 -36 -218 0
-33 -236 -36 -239 0
-33 -258 -36 -261 0
-41 -60 -44 -63 0
-41 -71 -44 -74 0
-41 -110 -44 -113 0
-41 -158 -44 -161 0
-41 -176 -44 -179 0
-41 -236 -44 -239 0
-41 -258 -44 -261 0
-50 -60 -53 -63 0
-50 -71 -53 -74 0
-50 -96 -53 -99 0
-50 -125 -53 -128 0
-50 -141 -53 -144 0
-50 -195 -53 -198 0
-50 -215 -53 -218 0
-60 -71 -63 -74 0
-60 -141 -63 -144 0
-60 -158 -63 -161 0
-60 -195 -63 -198 0
-60 -258 -63 -261 0
-71 -125 -74 -128 0
-71 -176 -74 -179 0
-71 -215 -74 -218 0
-71 -236 -74 -239 0
-83 -96 -86 -99 0
-83 -110 -86 -113 0
-83 -125 -86 -128 0
-83 -141 -86 -144 0
-83 -158 -86 -161 0
-83 -176 -86 -179 0
-96 -141 -99 -144 0
-96 -176 -99 -179 0
-96 -215 -99 -218 0
-96 -258 -99 -261 0
-110 -125 -113 -128 0
-110 -158 -113 -161 0
-110 -195 -113 -198 0
-110 -236 -113 -239 0
-125 -141 -128 -144 0
-125 -176 -128 -179 0
-125 -195 -128 -198 0
-125 -236 -128 -239 0
-141 -158 -144 -161 0
-141 -236 -144 -239 0
-141 -258 -144 -261 0
-158 -176 -161 -179 0
-158 -195 -161 -198 0
-158 -215 -161 -218 0
-176 -215 -179 -218 0
-176 -258 -179 -261 0
-195 -215 -198 -218 0
-195 -258 -198 -261 0
-215 -236 -218 -239 0
-236 -258 -239 -261 0
-33 -83 -96 0
-33 -83 -110 0
-33 -96 -215 0
-33 -96 -258 0
-33 -110 -195 0
-33 -110 -236 0
-33 -195 -215 0
-33 -195 -258 0
-33 -215 -236 0
-33 -236 -258 0
-41 -60 -71 0
-41 -60 -158 0
-41 -60 -258 0
-41 -71 -176 0
-41 -71 -236 0
-41 -110 -158 0
-41 -110 -236 0
-41 -158 -176 0
-41 -176 -258 0
-41 -236 -258 0
-50 -60 -71 0
-50 -60 -141 0
-50 -60 -195 0
-50 -71 -125 0
-50 -71 -215 0
-50 -96 -141 0
-50 -96 -215 0
-50 -125 -141 0
-50 -125 -195 0
-50 -195 -215 0
-60 -141 -158 0
-60 -141 -258 0
-60 -158 -195 0
-60 -195 -258 0
-71 -125 -176 0
-71 -125 -236 0
-71 -176 -215 0
-71 -215 -236 0
-83 -96 -141 0
-83 -96 -176 0
-83 -110 -125 0
-83 -110 -158 0
-83 -125 -141 0
-83 -125 -176 0
-83 -141 -158 0
-83 -158 -176 0
-96 -141 -258 0
-96 -176 -215 0
-96 -176 -258 0
-110 -125 -195 0
-110 -125 -236 0
-110 -158 -195 0
-125 -141 -236 0
-141 -236 -258 0
-158 -176 -215 0
-158 -195 -215 0
-34 -84 -35 -85 0
-34 -97 -35 -98 0
-34 -111 -35 -112 0
-34 -196 -35 -197 0
-34 -216 -35 -217 0
-34 -237 -35 -238 0
-34 -259 -35 -260 0
-42 -61 -43 -62 0
-42 -72 -43 -73 0
-42 -111 -43 -112 0
-42 -159 -43 -160 0
-42 -177 -43 -178 0
-42 -237 -43 -238 0
-42 -259 -43 -260 0
-51 -61 -52 -62 0
-51 -72 -52 -73 0
-51 -97 -52 -98 0
-51 -126 -52 -127 0
-51 -142 -52 -143 0
-51 -196 -52 -197 0
-51 -216 -52 -217 0
-61 -72 -62 -73 0
-61 -142 -62 -143 0
-61 -159 -62 -160 0
-61 -196 -62 -197 0
-61 -259 -62 -260 0
-72 -126 -73 -127 0
-72 -177 -73 -178 0
-72 -216 -73 -217 0
-72 -237 -73 -238 0
-84 -97 -85 -98 0
-84 -111 -85 -112 0
-84 -126 -85 -127 0
-84 -142 -85 -143 0
-84 -159 -85 -160 0
-84 -177 -85 -178 0
-97 -142 -98 -143 0
-97 -177 -98 -178 0
-97 -216 -98 -217 0
-97 -259 -98 -260 0
-111 -126 -112 -127 0
-111 -159 -112 -160 0
-111 -196 -112 -197 0
-111 -237 -112 -238 0
-126 -142 -127 -143 0
-126 -177 -127 -178 0
-126 -196 -127 -197 0
-126 -237 -127 -238 0
-142 -159 -143 -160 0
-142 -237 -143 -238 0
-142 -259 -143 -260 0
-159 -177 -160 -178 0
-159 -196 -160 -197 0
-159 -216 -160 -217 0
-177 -216 -178 -217 0
-177 -259 -178 -260 0
-196 -216 -197 -217 0
-196 -259 -197 -260 0
-216 -237 -217 -238 0
-237 -259 -238 -260 0
-27 -34 -84 -36 -86 0
-27 -34 -97 -36 -99 0
-27 -34 -111 -36 -113 0
-27 -34 -196 -36 -198 0
-27 -34 -216 -36 -218 0
-27 -34 -237 -36 -239 0
-27 -34 -259 -36 -261 0
-27 -42 -61 -44 -63 0
-27 -42 -72 -44 -74 0
-27 -42 -111 -44 -113 0
-27 -42 -159 -44 -161 0
-27 -42 -177 -44 -179 0
-27 -42 -237 -44 -239 0
-27 -42 -259 -44 -261 0
-27 -51 -61 -53 -63 0
-27 -51 -72 -53 -74 0
-27 -51 -97 -53 -99 0
-27 -51 -126 -53 -128 0
-27 -51 -142 -53 -144 0
-27 -51 -196 -53 -198 0
-27 -51 -216 -53 -218 0
-27 -61 -72 -63 -74 0
-27 -61 -142 -63 -144 0
-27 -61 -159 -63 -161 0
-27 -61 -196 -63 -198 0
-27 -61 -259 -63 -261 0
-27 -72 -126 -74 -128 0
-27 -72 -177 -74 -179 0
-27 -72 -216 -74 -218 0
-27 -72 -237 -74 -239 0
-27 -84 -97 -86 -99 0
-27 -84 -111 -86 -113 0
-27 -84 -126 -86 -128 0
-27 -84 -142 -86 -144 0
-27 -84 -159 -86 -161 0
-27 -84 -177 -86 -179 0
-27 -97 -142 -99 -144 0
-27 -97 -177 -99 -179 0
-27 -97 -216 -99 -218 0
-27 -97 -259 -99 -261 0
-27 -111 -126 -113 -128 0
-27 -111 -159 -113 -161 0
-27 -111 -196 -113 -198 0
-27 -111 -237 -113 -239 0
-27 -126 -142 -128 -144 0
-27 -126 -177 -128 -179 0
-27 -126 -196 -128 -198 0
-27 -126 -237 -128 -239 0
-27 -142 -159 -144 -161 0
-27 -142 -237 -144 -239 0
-27 -142 -259 -144 -261 0
-27 -159 -177 -161 -179 0
-27 -159 -196 -161 -198 0
-27 -159 -216 -161 -218 0
-27 -177 -216 -179 -218 0
-27 -177 -259 -179 -261 0
-27 -196 -216 -198 -218 0
-27 -196 -259 -198 -261 0
-27 -216 -237 -218 -239 0
-27 -237 -259 -239 -261 0
-34 -84 -97 0
-34 -84 -111 0
-34 -97 -216 0
-34 -97 -259 0
-34 -111 -196 0
-34 -111 -237 0
-34 -196 -216 0
-34 -196 -259 0
-34 -216 -237 0
-34 -237 -259 0
-42 -61 -72 0
-42 -61 -159 0
-42 -61 -259 0
-42 -72 -177 0
-42 -72 -237 0
-42 -111 -159 0
-42 -111 -237 0
-42 -159 -177 0
-42 -177 -259 0
-42 -237 -259 0
-51 -61 -72 0
-51 -61 -142 0
-51 -61 -196 0
-51 -72 -126 0
-51 -72 -216 0
-51 -97 -142 0
-51 -97 -216 0
-51 -126 -142 0
-51 -126 -196 0
-51 -196 -216 0
-61 -142 -159 0
-61 -142 -259 0
-61 -159 -196 0
-61 -196 -259 0
-72 -126 -177 0
-72 -126 -237 0
-72 -177 -216 0
-72 -216 -237 0
-84 -97 -142 0
-84 -97 -177 0
-84 -111 -126 0
-84 -111 -159 0
-84 -126 -142 0
-84 -126 -177 0
-84 -142 -159 0
-84 -159 -177 0
-97 -142 -259 0
-97 -177 -216 0
-97 -177 -259 0
-111 -126 -196 0
-111 -126 -237 0
-111 -159 -196 0
-126 -142 -237 0
-142 -237 -259 0
-159 -177 -216 0
-159 -196 -216 0
-35 -85 -98 0
-35 -85 -112 0
-35 -98 -217 0
-35 -98 -260 0
-35 -112 -197 0
-35 -112 -238 0
-35 -197 -217 0
-35 -197 -260 0
-35 -217 -238 0
-35 -238 -260 0
-43 -62 -73 0
-43 -62 -160 0
-43 -62 -260 0
-43 -73 -178 0
-43 -73 -238 0
-43 -112 -160 0
-43 -112 -238 0
-43 -160 -178 0
-43 -178 -260 0
-43 -238 -260 0
-52 -62 -73 0
-52 -62 -143 0
-52 -62 -197 0
-52 -73 -127 0
-52 -73 -217 0
-52 -98 -143 0
-52 -98 -217 0
-52 -127 -143 0
-52 -127 -197 0
-52 -197 -217 0
-62 -143 -160 0
-62 -143 -260 0
-62 -160 -197 0
-62 -197 -260 0
-73 -127 -178 0
-73 -127 -238 0
-73 -178 -217 0
-73 -217 -238 0
-85 -98 -143 0
-85 -98 -178 0
-85 -112 -127 0
-85 -112 -160 0
-85 -127 -143 0
-85 -127 -178 0
-85 -143 -160 0
-85 -160 -178 0
-98 -143 -260 0
-98 -178 -217 0
-98 -178 -260 0
-112 -127 -197 0
-112 -127 -238 0
-112 -160 -197 0
-127 -143 -238 0
-143 -238 -260 0
-160 -178 -217 0
-160 -197 -217 0
-36 -86 -99 0
-36 -86 -113 0
-36 -99 -218 0
-36 -99 -261 0
-36 -113 -198 0
-36 -113 -239 0
-36 -198 -218 0
-36 -198 -261 0
-36 -218 -239 0
-36 -239 -261 0
-44 -63 -74 0
-44 -63 -161 0
-44 -63 -261 0
-44 -74 -179 0
-44 -74 -239 0
-44 -113 -161 0
-44 -113 -239 0
-44 -161 -179 0
-44 -179 -261 0
-44 -239 -261 0
-53 -63 -74 0
-53 -63 -144 0
-53 -63 -198 0
-53 -74 -128 0
-53 -74 -218 0
-53 -99 -144 0
-53 -99 -218 0
-53 -128 -144 0
-53 -128 -198 0
-53 -198 -218 0
-63 -144 -161 0
-63 -144 -261 0
-63 -161 -198 0
-63 -198 -261 0
-74 -128 -179 0
-74 -128 -239 0
-74 -179 -218 0
-74 -218 -239 0
-86 -99 -144 0
-86 -99 -179 0
-86 -113 -128 0
-86 -113 -161 0
-86 -128 -144 0
-86 -128 -179 0
-86 -144 -161 0
-86 -161 -179 0
-99 -144 -261 0
-99 -179 -218 0
-99 -179 -261 0
-113 -128 -198 0
-113 -128 -239 0
-113 -161 -198 0
-128 -144 -239 0
-144 -239 -261 0
-161 -179 -218 0
-161 -198 -218 0
29 30 33 34 0
37 38 41 42 0
46 47 50 51 0
56 57 60 61 0
67 68 71 72 0
79 80 83 84 0
92 93 96 97 0
106 107 110 111 0
121 122 125 126 0
137 138 141 142 0
154 155 158 159 0
172 173 176 177 0
191 192 195 196 0
211 212 215 216 0
232 233 236 237 0
254 255 258 259 0
29 37 30 38 33 41 0
29 46 30 47 33 50 0
29 56 30 57 33 60 0
29 67 30 68 33 71 0
29 121 30 122 33 125 0
29 137 30 138 33 141 0
29 154 30 155 33 158 0
29 172 30 173 33 176 0
37 46 38 47 41 50 0
37 79 38 80 41 83 0
37 92 38 93 41 96 0
37 121 38 122 41 125 0
37 137 38 138 41 141 0
37 191 38 192 41 195 0
37 211 38 212 41 215 0
46 79 47 80 50 83 0
46 106 47 107 50 110 0
46 154 47 155 50 158 0
46 172 47 173 50 176 0
46 232 47 233 50 236 0
46 254 47 255 50 258 0
56 79 57 80 60 83 0
56 92 57 93 60 96 0
56 106 57 107 60 110 0
56 121 57 122 60 125 0
56 172 57 173 60 176 0
56 211 57 212 60 215 0
56 232 57 233 60 236 0
67 79 68 80 71 83 0
67 92 68 93 71 96 0
67 106 68 107 71 110 0
67 137 68 138 71 141 0
67 154 68 155 71 158 0
67 191 68 192 71 195 0
67 254 68 255 71 258 0
79 191 80 192 83 195 0
79 211 80 212 83 215 0
79 232 80 233 83 236 0
79 254 80 255 83 258 0
92 106 93 107 96 110 0
92 121 93 122 96 125 0
92 154 93 155 96 158 0
92 191 93 192 96 195 0
92 232 93 233 96 236 0
106 137 107 138 110 141 0
106 172 107 173 110 176 0
106 211 107 212 110 215 0
106 254 107 255 110 258 0
121 154 122 155 125 158 0
121 211 122 212 125 215 0
121 254 122 255 125 258 0
137 172 138 173 141 176 0
137 191 138 192 141 195 0
137 211 138 212 141 215 0
154 232 155 233 158 236 0
154 254 155 255 158 258 0
172 191 173 192 176 195 0
172 232 173 233 176 236 0
191 232 192 233 195 236 0
211 254 212 255 215 258 0
29 37 30 38 34 42 0
29 46 30 47 34 51 0
29 56 30 57 34 61 0
29 67 30 68 34 72 0
29 121 30 122 34 126 0
29 137 30 138 34 142 0
29 154 30 155 34 159 0
29 172 30 173 34 177 0
37 46 38 47 42 51 0
37 79 38 80 42 84 0
37 92 38 93 42 97 0
37 121 38 122 42 126 0
37 137 38 138 42 142 0
37 191 38 192 42 196 0
37 211 38 212 42 216 0
46 79 47 80 51 84 0
46 106 47 107 51 111 0
46 154 47 155 51 159 0
46 172 47 173 51 177 0
46 232 47 233 51 237 0
46 254 47 255 51 259 0
56 79 57 80 61 84 0
56 92 57 93 61 97 0
56 106 57 107 61 111 0
56 121 57 122 61 126 0
56 172 57 173 61 177 0
56 211 57 212 61 216 0
56 232 57 233 61 237 0
67 79 68 80 72 84 0
67 92 68 93 72 97 0
67 106 68 107 72 111 0
67 137 68 138 72 142 0
67 154 68 155 72 159 0
67 191 68 192 72 196 0
67 254 68 255 72 259 0
79 191 80 192 84 196 0
79 211 80 212 84 216 0
79 232 80 233 84 237 0
79 254 80 255 84 259 0
92 106 93 107 97 111 0
92 121 93 122 97 126 0
92 154 93 155 97 159 0
92 191 93 192 97 196 0
92 232 93 233 97 237 0
106 137 107 138 111 142 0
106 172 107 173 111 177 0
106 211 107 212 111 216 0
106 254 107 255 111 259 0
121 154 122 155 126 159 0
121 211 122 212 126 216 0
121 254 122 255 126 259 0
137 172 138 173 142 177 0
137 191 138 192 142 196 0
137 211 138 212 142 216 0
154 232 155 233 159 237 0
154 254 155 255 159 259 0
172 191 173 192 177 196 0
172 232 173 233 177 237 0
191 232 192 233 196 237 0
211 254 212 255 216 259 0
29 37 46 30 38 47 0
29 37 121 30 38 122 0
29 37 137 30 38 138 0
29 46 154 30 47 155 0
29 46 172 30 47 173 0
29 56 121 30 57 122 0
29 56 172 30 57 173 0
29 67 137 30 68 138 0
29 67 154 30 68 155 0
29 121 154 30 122 155 0
29 137 172 30 138 173 0
37 46 79 38 47 80 0
37 79 191 38 80 192 0
37 79 211 38 80 212 0
37 92 121 38 93 122 0
37 92 191 38 93 192 0
37 121 211 38 122 212 0
37 137 191 38 138 192 0
37 137 211 38 138 212 0
46 79 232 47 80 233 0
46 79 254 47 80 255 0
46 106 172 47 107 173 0
46 106 254 47 107 255 0
46 154 232 47 155 233 0
46 154 254 47 155 255 0
46 172 232 47 173 233 0
56 79 211 57 80 212 0
56 79 232 57 80 233 0
56 92 106 57 93 107 0
56 92 121 57 93 122 0
56 92 232 57 93 233 0
56 106 172 57 107 173 0
56 106 211 57 107 212 0
56 121 211 57 122 212 0
56 172 232 57 173 233 0
67 79 191 68 80 192 0
67 79 254 68 80 255 0
67 92 106 68 93 107 0
67 92 154 68 93 155 0
67 92 191 68 93 192 0
67 106 137 68 107 138 0
67 106 254 68 107 255 0
67 137 191 68 138 192 0
67 154 254 68 155 255 0
79 191 232 80 192 233 0
79 211 254 80 212 255 0
92 121 154 93 122 155 0
92 154 232 93 155 233 0
92 191 232 93 192 233 0
106 137 172 107 138 173 0
106 137 211 107 138 212 0
106 211 254 107 212 255 0
121 154 254 122 155 255 0
121 211 254 122 212 255 0
137 172 191 138 173 192 0
172 191 232 173 192 233 0
2 29 13 31 33 34 0
2 37 13 39 41 42 0
2 46 13 48 50 51 0
2 56 13 58 60 61 0
2 67 13 69 71 72 0
2 79 13 81 83 84 0
2 92 13 94 96 97 0
2 106 13 108 110 111 0
2 121 13 123 125 126 0
2 137 13 139 141 142 0
2 154 13 156 158 159 0
2 172 13 174 176 177 0
2 191 13 193 195 196 0
2 211 13 213 215 216 0
2 232 13 234 236 237 0
2 254 13 256 258 259 0
2 29 37 31 39 33 41 0
2 29 46 31 48 33 50 0
2 29 56 31 58 33 60 0
2 29 67 31 69 33 71 0
2 29 121 31 123 33 125 0
2 29 137 31 139 33 141 0
2 29 154 31 156 33 158 0
2 29 172 31 174 33 176 0
2 37 46 39 48 41 50 0
2 37 79 39 81 41 83 0
2 37 92 39 94 41 96 0
2 37 121 39 123 41 125 0
2 37 137 39 139 41 141 0
2 37 191 39 193 41 195 0
2 37 211 39 213 41 215 0
2 46 79 48 81 50 83 0
2 46 106 48 108 50 110 0
2 46 154 48 156 50 158 0
2 46 172 48 174 50 176 0
2 46 232 48 234 50 236 0
2 46 254 48 256 50 258 0
2 56 79 58 81 60 83 0
2 56 92 58 94 60 96 0
2 56 106 58 108 60 110 0
2 56 121 58 123 60 125 0
2 56 172 58 174 60 176 0
2 56 211 58 213 60 215 0
2 56 232 58 234 60 236 0
2 67 79 69 81 71 83 0
2 67 92 69 94 71 96 0
2 67 106 69 108 71 110 0
2 67 137 69 139 71 141 0
2 67 154 69 156 71 158 0
2 67 191 69 193 71 195 0
2 67 254 69 256 71 258 0
2 79 191 81 193 83 195 0
2 79 211 81 213 83 215 0
2 79 232 81 234 83 236 0
2 79 254 81 256 83 258 0
2 92 106 94 108 96 110 0
2 92 121 94 123 96 125 0
2 92 154 94 156 96 158 0
2 92 191 94 193 96 195 0
2 92 232 94 234 96 236 0
2 106 137 108 139 110 141 0
2 106 172 108 174 110 176 0
2 106 211 108 213 110 215 0
2 106 254 108 256 110 258 0
2 121 154 123 156 125 158 0
2 121 211 123 213 125 215 0
2 121 254 123 256 125 258 0
2 137 172 139 174 141 176 0
2 137 191 139 193 141 195 0
2 137 211 139 213 141 215 0
2 154 232 156 234 158 236 0
2 154 254 156 256 158 258 0
2 172 191 174 193 176 195 0
2 172 232 174 234 176 236 0
2 191 232 193 234 195 236 0
2 211 254 213 256 215 258 0
2 29 37 13 31 39 34 42 0
2 29 46 13 31 48 34 51 0
2 29 56 13 31 58 34 61 0
2 29 67 13 31 69 34 72 0
2 29 121 13 31 123 34 126 0
2 29 137 13 31 139 34 142 0
2 29 154 13 31 156 34 159 0
2 29 172 13 31 174 34 177 0
2 37 46 13 39 48 42 51 0
2 37 79 13 39 81 42 84 0
2 37 92 13 39 94 42 97 0
2 37 121 13 39 123 42 126 0
2 37 137 13 39 139 42 142 0
2 37 191 13 39 193 42 196 0
2 37 211 13 39 213 42 216 0
2 46 79 13 48 81 51 84 0
2 46 106 13 48 108 51 111 0
2 46 154 13 48 156 51 159 0
2 46 172 13 48 174 51 177 0
2 46 232 13 48 234 51 237 0
2 46 254 13 48 256 51 259 0
2 56 79 13 58 81 61 84 0
2 56 92 13 58 94 61 97 0
2 56 106 13 58 108 61 111 0
2 56 121 13 58 123 61 126 0
2 56 172 13 58 174 61 177 0
2 56 211 13 58 213 61 216 0
2 56 232 13 58 234 61 237 0
2 67 79 13 69 81 72 84 0
2 67 92 13 69 94 72 97 0
2 67 106 13 69 108 72 111 0
2 67 137 13 69 139 72 142 0
2 67 154 13 69 156 72 159 0
2 67 191 13 69 193 72 196 0
2 67 254 13 69 256 72 259 0
2 79 191 13 81 193 84 196 0
2 79 211 13 81 213 84 216 0
2 79 232 13 81 234 84 237 0
2 79 254 13 81 256 84 259 0
2 92 106 13 94 108 97 111 0
2 92 121 13 94 123 97 126 0
2 92 154 13 94 156 97 159 0
2 92 191 13 94 193 97 196 0
2 92 232 13 94 234 97 237 0
2 106 137 13 108 139 111 142 0
2 106 172 13 108 174 111 177 0
2 106 211 13 108 213 111 216 0
2 106 254 13 108 256 111 259 0
2 121 154 13 123 156 126 159 0
2 121 211 13 123 213 126 216 0
2 121 254 13 123 256 126 259 0
2 137 172 13 139 174 142 177 0
2 137 191 13 139 193 142 196 0
2 137 211 13 139 213 142 216 0
2 154 232 13 156 234 159 237 0
2 154 254 13 156 256 159 259 0
2 172 191 13 174 193 177 196 0
2 172 232 13 174 234 177 237 0
2 191 232 13 193 234 196 237 0
2 211 254 13 213 256 216 259 0
2 29 37 31 39 35 43 0
2 29 46 31 48 35 52 0
2 29 56 31 58 35 62 0
2 29 67 31 69 35 73 0
2 29 121 31 123 35 127 0
2 29 137 31 139 35 143 0
2 29 154 31 156 35 160 0
2 29 172 31 174 35 178 0
2 37 46 39 48 43 52 0
2 37 79 39 81 43 85 0
2 37 92 39 94 43 98 0
2 37 121 39 123 43 127 0
2 37 137 39 139 43 143 0
2 37 191 39 193 43 197 0
2 37 211 39 213 43 217 0
2 46 79 48 81 52 85 0
2 46 106 48 108 52 112 0
2 46 154 48 156 52 160 0
2 46 172 48 174 52 178 0
2 46 232 48 234 52 238 0
2 46 254 48 256 52 260 0
2 56 79 58 81 62 85 0
2 56 92 58 94 62 98 0
2 56 106 58 108 62 112 0
2 56 121 58 123 62 127 0
2 56 172 58 174 62 178 0
2 56 211 58 213 62 217 0
2 56 232 58 234 62 238 0
2 67 79 69 81 73 85 0
2 67 92 69 94 73 98 0
2 67 106 69 108 73 112 0
2 67 137 69 139 73 143 0
2 67 154 69 156 73 160 0
2 67 191 69 193 73 197 0
2 67 254 69 256 73 260 0
2 79 191 81 193 85 197 0
2 79 211 81 213 85 217 0
2 79 232 81 234 85 238 0
2 79 254 81 256 85 260 0
2 92 106 94 108 98 112 0
2 92 121 94 123 98 127 0
2 92 154 94 156 98 160 0
2 92 191 94 193 98 197 0
2 92 232 94 234 98 238 0
2 106 137 108 139 112 143 0
2 106 172 108 174 112 178 0
2 106 211 108 213 112 217 0
2 106 254 108 256 112 260 0
2 121 154 123 156 127 160 0
2 121 211 123 213 127 217 0
2 121 254 123 256 127 260 0
2 137 172 139 174 143 178 0
2 137 191 139 193 143 197 0
2 137 211 139 213 143 217 0
2 154 232 156 234 160 238 0
2 154 254 156 256 160 260 0
2 172 191 174 193 178 197 0
2 172 232 174 234 178 238 0
2 191 232 193 234 197 238 0
2 211 254 213 256 217 260 0
2 29 37 46 31 39 48 0
2 29 37 121 31 39 123 0
2 29 37 137 31 39 139 0
2 29 46 154 31 48 156 0
2 29 46 172 31 48 174 0
2 29 56 121 31 58 123 0
2 29 56 172 31 58 174 0
2 29 67 137 31 69 139 0
2 29 67 154 31 69 156 0
2 29 121 154 31 123 156 0
2 29 137 172 31 139 174 0
2 37 46 79 39 48 81 0
2 37 79 191 39 81 193 0
2 37 79 211 39 81 213 0
2 37 92 121 39 94 123 0
2 37 92 191 39 94 193 0
2 37 121 211 39 123 213 0
2 37 137 191 39 139 193 0
2 37 137 211 39 139 213 0
2 46 79 232 48 81 234 0
2 46 79 254 48 81 256 0
2 46 106 172 48 108 174 0
2 46 106 254 48 108 256 0
2 46 154 232 48 156 234 0
2 46 154 254 48 156 256 0
2 46 172 232 48 174 234 0
2 56 79 211 58 81 213 0
2 56 79 232 58 81 234 0
2 56 92 106 58 94 108 0
2 56 92 121 58 94 123 0
2 56 92 232 58 94 234 0
2 56 106 172 58 108 174 0
2 56 106 211 58 108 213 0
2 56 121 211 58 123 213 0
2 56 172 232 58 174 234 0
2 67 79 191 69 81 193 0
2 67 79 254 69 81 256 0
2 67 92 106 69 94 108 0
2 67 92 154 69 94 156 0
2 67 92 191 69 94 193 0
2 67 106 137 69 108 139 0
2 67 106 254 69 108 256 0
2 67 137 191 69 139 193 0
2 67 154 254 69 156 256 0
2 79 191 232 81 193 234 0
2 79 211 254 81 213 256 0
2 92 121 154 94 123 156 0
2 92 154 232 94 156 234 0
2 92 191 232 94 193 234 0
2 106 137 172 108 139 174 0
2 106 137 211 108 139 213 0
2 106 211 254 108 213 256 0
2 121 154 254 123 156 256 0
2 121 211 254 123 213 256 0
2 137 172 191 139 174 193 0
2 172 191 232 174 193 234 0
29 37 33 41 34 42 0
29 46 33 50 34 51 0
29 56 33 60 34 61 0
29 67 33 71 34 72 0
29 121 33 125 34 126 0
29 137 33 141 34 142 0
29 154 33 158 34 159 0
29 172 33 176 34 177 0
37 46 41 50 42 51 0
37 79 41 83 42 84 0
37 92 41 96 42 97 0
37 121 41 125 42 126 0
37 137 41 141 42 142 0
37 191 41 195 42 196 0
37 211 41 215 42 216 0
46 79 50 83 51 84 0
46 106 50 110 51 111 0
46 154 50 158 51 159 0
46 172 50 176 51 177 0
46 232 50 236 51 237 0
46 254 50 258 51 259 0
56 79 60 83 61 84 0
56 92 60 96 61 97 0
56 106 60 110 61 111 0
56 121 60 125 61 126 0
56 172 60 176 61 177 0
56 211 60 215 61 216 0
56 232 60 236 61 237 0
67 79 71 83 72 84 0
67 92 71 96 72 97 0
67 106 71 110 72 111 0
67 137 71 141 72 142 0
67 154 71 158 72 159 0
67 191 71 195 72 196 0
67 254 71 258 72 259 0
79 191 83 195 84 196 0
79 211 83 215 84 216 0
79 232 83 236 84 237 0
79 254 83 258 84 259 0
92 106 96 110 97 111 0
92 121 96 125 97 126 0
92 154 96 158 97 159 0
92 191 96 195 97 196 0
92 232 96 236 97 237 0
106 137 110 141 111 142 0
106 172 110 176 111 177 0
106 211 110 215 111 216 0
106 254 110 258 111 259 0
121 154 125 158 126 159 0
121 211 125 215 126 216 0
121 254 125 258 126 259 0
137 172 141 176 142 177 0
137 191 141 195 142 196 0
137 211 141 215 142 216 0
154 232 158 236 159 237 0
154 254 158 258 159 259 0
172 191 176 195 177 196 0
172 232 176 236 177 237 0
191 232 195 236 196 237 0
211 254 215 258 216 259 0
29 37 46 33 41 50 0
29 37 121 33 41 125 0
29 37 137 33 41 141 0
29 46 154 33 50 158 0
29 46 172 33 50 176 0
29 56 121 33 60 125 0
29 56 172 33 60 176 0
29 67 137 33 71 141 0
29 67 154 33 71 158 0
29 121 154 33 125 158 0
29 137 172 33 141 176 0
37 46 79 41 50 83 0
37 79 191 41 83 195 0
37 79 211 41 83 215 0
37 92 121 41 96 125 0
37 92 191 41 96 195 0
37 121 211 41 125 215 0
37 137 191 41 141 195 0
37 137 211 41 141 215 0
46 79 232 50 83 236 0
46 79 254 50 83 258 0
46 106 172 50 110 176 0
46 106 254 50 110 258 0
46 154 232 50 158 236 0
46 154 254 50 158 258 0
46 172 232 50 176 236 0
56 79 211 60 83 215 0
56 79 232 60 83 236 0
56 92 106 60 96 110 0
56 92 121 60 96 125 0
56 92 232 60 96 236 0
56 106 172 60 110 176 0
56 106 211 60 110 215 0
56 121 211 60 125 215 0
56 172 232 60 176 236 0
67 79 191 71 83 195 0
67 79 254 71 83 258 0
67 92 106 71 96 110 0
67 92 154 71 96 158 0
67 92 191 71 96 195 0
67 106 137 71 110 141 0
67 106 254 71 110 258 0
67 137 191 71 141 195 0
67 154 254 71 158 258 0
79 191 232 83 195 236 0
79 211 254 83 215 258 0
92 121 154 96 125 158 0
92 154 232 96 158 236 0
92 191 232 96 195 236 0
106 137 172 110 141 176 0
106 137 211 110 141 215 0
106 211 254 110 215 258 0
121 154 254 125 158 258 0
121 211 254 125 215 258 0
137 172 191 141 176 195 0
172 191 232 176 195 236 0
29 37 46 34 42 51 0
29 37 121 34 42 126 0
29 37 137 34 42 142 0
29 46 154 34 51 159 0
29 46 172 34 51 177 0
29 56 121 34 61 126 0
29 56 172 34 61 177 0
29 67 137 34 72 142 0
29 67 154 34 72 159 0
29 121 154 34 126 159 0
29 137 172 34 142 177 0
37 46 79 42 51 84 0
37 79 191 42 84 196 0
37 79 211 42 84 216 0
37 92 121 42 97 126 0
37 92 191 42 97 196 0
37 121 211 42 126 216 0
37 137 191 42 142 196 0
37 137 211 42 142 216 0
46 79 232 51 84 237 0
46 79 254 51 84 259 0
46 106 172 51 111 177 0
46 106 254 51 111 259 0
46 154 232 51 159 237 0
46 154 254 51 159 259 0
46 172 232 51 177 237 0
56 79 211 61 84 216 0
56 79 232 61 84 237 0
56 92 106 61 97 111 0
56 92 121 61 97 126 0
56 92 232 61 97 237 0
56 106 172 61 111 177 0
56 106 211 61 111 216 0
56 121 211 61 126 216 0
56 172 232 61 177 237 0
67 79 191 72 84 196 0
67 79 254 72 84 259 0
67 92 106 72 97 111 0
67 92 154 72 97 159 0
67 92 191 72 97 196 0
67 106 137 72 111 142 0
67 106 254 72 111 259 0
67 137 191 72 142 196 0
67 154 254 72 159 259 0
79 191 232 84 196 237 0
79 211 254 84 216 259 0
92 121 154 97 126 159 0
92 154 232 97 159 237 0
92 191 232 97 196 237 0
106 137 172 111 142 177 0
106 137 211 111 142 216 0
106 211 254 111 216 259 0
121 154 254 126 159 259 0
121 211 254 126 216 259 0
137 172 191 142 177 196 0
172 191 232 177 196 237 0
29 37 46 35 43 52 0
29 37 121 35 43 127 0
29 37 137 35 43 143 0
29 46 154 35 52 160 0
29 46 172 35 52 178 0
29 56 121 35 62 127 0
29 56 172 35 62 178 0
29 67 137 35 73 143 0
29 67 154 35 73 160 0
29 121 154 35 127 160 0
29 137 172 35 143 178 0
37 46 79 43 52 85 0
37 79 191 43 85 197 0
37 79 211 43 85 217 0
37 92 121 43 98 127 0
37 92 191 43 98 197 0
37 121 211 43 127 217 0
37 137 191 43 143 197 0
37 137 211 43 143 217 0
46 79 232 52 85 238 0
46 79 254 52 85 260 0
46 106 172 52 112 178 0
46 106 254 52 112 260 0
46 154 232 52 160 238 0
46 154 254 52 160 260 0
46 172 232 52 178 238 0
56 79 211 62 85 217 0
56 79 232 62 85 238 0
56 92 106 62 98 112 0
56 92 121 62 98 127 0
56 92 232 62 98 238 0
56 106 172 62 112 178 0
56 106 211 62 112 217 0
56 121 211 62 127 217 0
56 172 232 62 178 238 0
67 79 191 73 85 197 0
67 79 254 73 85 260 0
67 92 106 73 98 112 0
67 92 154 73 98 160 0
67 92 191 73 98 197 0
67 106 137 73 112 143 0
67 106 254 73 112 260 0
67 137 191 73 143 197 0
67 154 254 73 160 260 0
79 191 232 85 197 238 0
79 211 254 85 217 260 0
92 121 154 98 127 160 0
92 154 232 98 160 238 0
92 191 232 98 197 238 0
106 137 172 112 143 178 0
106 137 211 112 143 217 0
106 211 254 112 217 260 0
121 154 254 127 160 260 0
121 211 254 127 217 260 0
137 172 191 143 178 197 0
172 191 232 178 197 238 0
5 30 32 27 34 36 0
5 38 40 27 42 44 0
5 47 49 27 51 53 0
5 57 59 27 61 63 0
5 68 70 27 72 74 0
5 80 82 27 84 86 0
5 93 95 27 97 99 0
5 107 109 27 111 113 0
5 122 124 27 126 128 0
5 138 140 27 142 144 0
5 155 157 27 159 161 0
5 173 175 27 177 179 0
5 192 194 27 196 198 0
5 212 214 27 216 218 0
5 233 235 27 237 239 0
5 255 257 27 259 261 0
5 30 38 32 40 34 42 0
5 30 47 32 49 34 51 0
5 30 57 32 59 34 61 0
5 30 68 32 70 34 72 0
5 30 122 32 124 34 126 0
5 30 138 32 140 34 142 0
5 30 155 32 157 34 159 0
5 30 173 32 175 34 177 0
5 38 47 40 49 42 51 0
5 38 80 40 82 42 84 0
5 38 93 40 95 42 97 0
5 38 122 40 124 42 126 0
5 38 138 40 140 42 142 0
5 38 192 40 194 42 196 0
5 38 212 40 214 42 216 0
5 47 80 49 82 51 84 0
5 47 107 49 109 51 111 0
5 47 155 49 157 51 159 0
5 47 173 49 175 51 177 0
5 47 233 49 235 51 237 0
5 47 255 49 257 51 259 0
5 57 80 59 82 61 84 0
5 57 93 59 95 61 97 0
5 57 107 59 109 61 111 0
5 57 122 59 124 61 126 0
5 57 173 59 175 61 177 0
5 57 212 59 214 61 216 0
5 57 233 59 235 61 237 0
5 68 80 70 82 72 84 0
5 68 93 70 95 72 97 0
5 68 107 70 109 72 111 0
5 68 138 70 140 72 142 0
5 68 155 70 157 72 159 0
5 68 192 70 194 72 196 0
5 68 255 70 257 72 259 0
5 80 192 82 194 84 196 0
5 80 212 82 214 84 216 0
5 80 233 82 235 84 237 0
5 80 255 82 257 84 259 0
5 93 107 95 109 97 111 0
5 93 122 95 124 97 126 0
5 93 155 95 157 97 159 0
5 93 192 95 194 97 196 0
5 93 233 95 235 97 237 0
5 107 138 109 140 111 142 0
5 107 173 109 175 111 177 0
5 107 212 109 214 111 216 0
5 107 255 109 257 111 259 0
5 122 155 124 157 126 159 0
5 122 212 124 214 126 216 0
5 122 255 124 257 126 259 0
5 138 173 140 175 142 177 0
5 138 192 140 194 142 196 0
5 138 212 140 214 142 216 0
5 155 233 157 235 159 237 0
5 155 255 157 257 159 259 0
5 173 192 175 194 177 196 0
5 173 233 175 235 177 237 0
5 192 233 194 235 196 237 0
5 212 255 214 257 216 259 0
5 30 38 32 40 36 44 0
5 30 47 32 49 36 53 0
5 30 57 32 59 36 63 0
5 30 68 32 70 36 74 0
5 30 122 32 124 36 128 0
5 30 138 32 140 36 144 0
5 30 155 32 157 36 161 0
5 30 173 32 175 36 179 0
5 38 47 40 49 44 53 0
5 38 80 40 82 44 86 0
5 38 93 40 95 44 99 0
5 38 122 40 124 44 128 0
5 38 138 40 140 44 144 0
5 38 192 40 194 44 198 0
5 38 212 40 214 44 218 0
5 47 80 49 82 53 86 0
5 47 107 49 109 53 113 0
5 47 155 49 157 53 161 0
5 47 173 49 175 53 179 0
5 47 233 49 235 53 239 0
5 47 255 49 257 53 261 0
5 57 80 59 82 63 86 0
5 57 93 59 95 63 99 0
5 57 107 59 109 63 113 0
5 57 122 59 124 63 128 0
5 57 173 59 175 63 179 0
5 57 212 59 214 63 218 0
5 57 233 59 235 63 239 0
5 68 80 70 82 74 86 0
5 68 93 70 95 74 99 0
5 68 107 70 109 74 113 0
5 68 138 70 140 74 144 0
5 68 155 70 157 74 161 0
5 68 192 70 194 74 198 0
5 68 255 70 257 74 261 0
5 80 192 82 194 86 198 0
5 80 212 82 214 86 218 0
5 80 233 82 235 86 239 0
5 80 255 82 257 86 261 0
5 93 107 95 109 99 113 0
5 93 122 95 124 99 128 0
5 93 155 95 157 99 161 0
5 93 192 95 194 99 198 0
5 93 233 95 235 99 239 0
5 107 138 109 140 113 144 0
5 107 173 109 175 113 179 0
5 107 212 109 214 113 218 0
5 107 255 109 257 113 261 0
5 122 155 124 157 128 161 0
5 122 212 124 214 128 218 0
5 122 255 124 257 128 261 0
5 138 173 140 175 144 179 0
5 138 192 140 194 144 198 0
5 138 212 140 214 144 218 0
5 155 233 157 235 161 239 0
5 155 255 157 257 161 261 0
5 173 192 175 194 179 198 0
5 173 233 175 235 179 239 0
5 192 233 194 235 198 239 0
5 212 255 214 257 218 261 0
5 30 38 47 32 40 49 0
5 30 38 122 32 40 124 0
5 30 38 138 32 40 140 0
5 30 47 155 32 49 157 0
5 30 47 173 32 49 175 0
5 30 57 122 32 59 124 0
5 30 57 173 32 59 175 0
5 30 68 138 32 70 140 0
5 30 68 155 32 70 157 0
5 30 122 155 32 124 157 0
5 30 138 173 32 140 175 0
5 38 47 80 40 49 82 0
5 38 80 192 40 82 194 0
5 38 80 212 40 82 214 0
5 38 93 122 40 95 124 0
5 38 93 192 40 95 194 0
5 38 122 212 40 124 214 0
5 38 138 192 40 140 194 0
5 38 138 212 40 140 214 0
5 47 80 233 49 82 235 0
5 47 80 255 49 82 257 0
5 47 107 173 49 109 175 0
5 47 107 255 49 109 257 0
5 47 155 233 49 157 235 0
5 47 155 255 49 157 257 0
5 47 173 233 49 175 235 0
5 57 80 212 59 82 214 0
5 57 80 233 59 82 235 0
5 57 93 107 59 95 109 0
5 57 93 122 59 95 124 0
5 57 93 233 59 95 235 0
5 57 107 173 59 109 175 0
5 57 107 212 59 109 214 0
5 57 122 212 59 124 214 0
5 57 173 233 59 175 235 0
5 68 80 192 70 82 194 0
5 68 80 255 70 82 257 0
5 68 93 107 70 95 109 0
5 68 93 155 70 95 157 0
5 68 93 192 70 95 194 0
5 68 107 138 70 109 140 0
5 68 107 255 70 109 257 0
5 68 138 192 70 140 194 0
5 68 155 255 70 157 257 0
5 80 192 233 82 194 235 0
5 80 212 255 82 214 257 0
5 93 122 155 95 124 157 0
5 93 155 233 95 157 235 0
5 93 192 233 95 194 235 0
5 107 138 173 109 140 175 0
5 107 138 212 109 140 214 0
5 107 212 255 109 214 257 0
5 122 155 255 124 157 257 0
5 122 212 255 124 214 257 0
5 138 173 192 140 175 194 0
5 173 192 233 175 194 235 0
30 38 33 41 34 42 0
30 47 33 50 34 51 0
30 57 33 60 34 61 0
30 68 33 71 34 72 0
30 122 33 125 34 126 0
30 138 33 141 34 142 0
30 155 33 158 34 159 0
30 173 33 176 34 177 0
38 47 41 50 42 51 0
38 80 41 83 42 84 0
38 93 41 96 42 97 0
38 122 41 125 42 126 0
38 138 41 141 42 142 0
38 192 41 195 42 196 0
38 212 41 215 42 216 0
47 80 50 83 51 84 0
47 107 50 110 51 111 0
47 155 50 158 51 159 0
47 173 50 176 51 177 0
47 233 50 236 51 237 0
47 255 50 258 51 259 0
57 80 60 83 61 84 0
57 93 60 96 61 97 0
57 107 60 110 61 111 0
57 122 60 125 61 126 0
57 173 60 176 61 177 0
57 212 60 215 61 216 0
57 233 60 236 61 237 0
68 80 71 83 72 84 0
68 93 71 96 72 97 0
68 107 71 110 72 111 0
68 138 71 141 72 142 0
68 155 71 158 72 159 0
68 192 71 195 72 196 0
68 255 71 258 72 259 0
80 192 83 195 84 196 0
80 212 83 215 84 216 0
80 233 83 236 84 237 0
80 255 83 258 84 259 0
93 107 96 110 97 111 0
93 122 96 125 97 126 0
93 155 96 158 97 159 0
93 192 96 195 97 196 0
93 233 96 236 97 237 0
107 138 110 141 111 142 0
107 173 110 176 111 177 0
107 212 110 215 111 216 0
107 255 110 258 111 259 0
122 155 125 158 126 159 0
122 212 125 215 126 216 0
122 255 125 258 126 259 0
138 173 141 176 142 177 0
138 192 141 195 142 196 0
138 212 141 215 142 216 0
155 233 158 236 159 237 0
155 255 158 258 159 259 0
173 192 176 195 177 196 0
173 233 176 236 177 237 0
192 233 195 236 196 237 0
212 255 215 258 216 259 0
30 38 47 33 41 50 0
30 38 122 33 41 125 0
30 38 138 33 41 141 0
30 47 155 33 50 158 0
30 47 173 33 50 176 0
30 57 122 33 60 125 0
30 57 173 33 60 176 0
30 68 138 33 71 141 0
30 68 155 33 71 158 0
30 122 155 33 125 158 0
30 138 173 33 141 176 0
38 47 80 41 50 83 0
38 80 192 41 83 195 0
38 80 212 41 83 215 0
38 93 122 41 96 125 0
38 93 192 41 96 195 0
38 122 212 41 125 215 0
38 138 192 41 141 195 0
38 138 212 41 141 215 0
47 80 233 50 83 236 0
47 80 255 50 83 258 0
47 107 173 50 110 176 0
47 107 255 50 110 258 0
47 155 233 50 158 236 0
47 155 255 50 158 258 0
47 173 233 50 176 236 0
57 80 212 60 83 215 0
57 80 233 60 83 236 0
57 93 107 60 96 110 0
57 93 122 60 96 125 0
57 93 233 60 96 236 0
57 107 173 60 110 176 0
57 107 212 60 110 215 0
57 122 212 60 125 215 0
57 173 233 60 176 236 0
68 80 192 71 83 195 0
68 80 255 71 83 258 0
68 93 107 71 96 110 0
68 93 155 71 96 158 0
68 93 192 71 96 195 0
68 107 138 71 110 141 0
68 107 255 71 110 258 0
68 138 192 71 141 195 0
68 155 255 71 158 258 0
80 192 233 83 195 236 0
80 212 255 83 215 258 0
93 122 155 96 125 158 0
93 155 233 96 158 236 0
93 192 233 96 195 236 0
107 138 173 110 141 176 0
107 138 212 110 141 215 0
107 212 255 110 215 258 0
122 155 255 125 158 258 0
122 212 255 125 215 258 0
138 173 192 141 176 195 0
173 192 233 176 195 236 0
30 38 27 34 42 36 44 0
30 47 27 34 51 36 53 0
30 57 27 34 61 36 63 0
30 68 27 34 72 36 74 0
30 122 27 34 126 36 128 0
30 138 27 34 142 36 144 0
30 155 27 34 159 36 161 0
30 173 27 34 177 36 179 0
38 47 27 42 51 44 53 0
38 80 27 42 84 44 86 0
38 93 27 42 97 44 99 0
38 122 27 42 126 44 128 0
38 138 27 42 142 44 144 0
38 192 27 42 196 44 198 0
38 212 27 42 216 44 218 0
47 80 27 51 84 53 86 0
47 107 27 51 111 53 113 0
47 155 27 51 159 53 161 0
47 173 27 51 177 53 179 0
47 233 27 51 237 53 239 0
47 255 27 51 259 53 261 0
57 80 27 61 84 63 86 0
57 93 27 61 97 63 99 0
57 107 27 61 111 63 113 0
57 122 27 61 126 63 128 0
57 173 27 61 177 63 179 0
57 212 27 61 216 63 218 0
57 233 27 61 237 63 239 0
68 80 27 72 84 74 86 0
68 93 27 72 97 74 99 0
68 107 27 72 111 74 113 0
68 138 27 72 142 74 144 0
68 155 27 72 159 74 161 0
68 192 27 72 196 74 198 0
68 255 27 72 259 74 261 0
80 192 27 84 196 86 198 0
80 212 27 84 216 86 218 0
80 233 27 84 237 86 239 0
80 255 27 84 259 86 261 0
93 107 27 97 111 99 113 0
93 122 27 97 126 99 128 0
93 155 27 97 159 99 161 0
93 192 27 97 196 99 198 0
93 233 27 97 237 99 239 0
107 138 27 111 142 113 144 0
107 173 27 111 177 113 179 0
107 212 27 111 216 113 218 0
107 255 27 111 259 113 261 0
122 155 27 126 159 128 161 0
122 212 27 126 216 128 218 0
122 255 27 126 259 128 261 0
138 173 27 142 177 144 179 0
138 192 27 142 196 144 198 0
138 212 27 142 216 144 218 0
155 233 27 159 237 161 239 0
155 255 27 159 259 161 261 0
173 192 27 177 196 179 198 0
173 233 27 177 237 179 239 0
192 233 27 196 237 198 239 0
212 255 27 216 259 218 261 0
30 38 47 34 42 51 0
30 38 122 34 42 126 0
30 38 138 34 42 142 0
30 47 155 34 51 159 0
30 47 173 34 51 177 0
30 57 122 34 61 126 0
30 57 173 34 61 177 0
30 68 138 34 72 142 0
30 68 155 34 72 159 0
30 122 155 34 126 159 0
30 138 173 34 142 177 0
38 47 80 42 51 84 0
38 80 192 42 84 196 0
38 80 212 42 84 216 0
38 93 122 42 97 126 0
38 93 192 42 97 196 0
38 122 212 42 126 216 0
38 138 192 42 142 196 0
38 138 212 42 142 216 0
47 80 233 51 84 237 0
47 80 255 51 84 259 0
47 107 173 51 111 177 0
47 107 255 51 111 259 0
47 155 233 51 159 237 0
47 155 255 51 159 259 0
47 173 233 51 177 237 0
57 80 212 61 84 216 0
57 80 233 61 84 237 0
57 93 107 61 97 111 0
57 93 122 61 97 126 0
57 93 233 61 97 237 0
57 107 173 61 111 177 0
57 107 212 61 111 216 0
57 122 212 61 126 216 0
57 173 233 61 177 237 0
68 80 192 72 84 196 0
68 80 255 72 84 259 0
68 93 107 72 97 111 0
68 93 155 72 97 159 0
68 93 192 72 97 196 0
68 107 138 72 111 142 0
68 107 255 72 111 259 0
68 138 192 72 142 196 0
68 155 255 72 159 259 0
80 192 233 84 196 237 0
80 212 255 84 216 259 0
93 122 155 97 126 159 0
93 155 233 97 159 237 0
93 192 233 97 196 237 0
107 138 173 111 142 177 0
107 138 212 111 142 216 0
107 212 255 111 216 259 0
122 155 255 126 159 259 0
122 212 255 126 216 259 0
138 173 192 142 177 196 0
173 192 233 177 196 237 0
30 38 47 36 44 53 0
30 38 122 36 44 128 0
30 38 138 36 44 144 0
30 47 155 36 53 161 0
30 47 173 36 53 179 0
30 57 122 36 63 128 0
30 57 173 36 63 179 0
30 68 138 36 74 144 0
30 68 155 36 74 161 0
30 122 155 36 128 161 0
30 138 173 36 144 179 0
38 47 80 44 53 86 0
38 80 192 44 86 198 0
38 80 212 44 86 218 0
38 93 122 44 99 128 0
38 93 192 44 99 198 0
38 122 212 44 128 218 0
38 138 192 44 144 198 0
38 138 212 44 144 218 0
47 80 233 53 86 239 0
47 80 255 53 86 261 0
47 107 173 53 113 179 0
47 107 255 53 113 261 0
47 155 233 53 161 239 0
47 155 255 53 161 261 0
47 173 233 53 179 239 0
57 80 212 63 86 218 0
57 80 233 63 86 239 0
57 93 107 63 99 113 0
57 93 122 63 99 128 0
57 93 233 63 99 239 0
57 107 173 63 113 179 0
57 107 212 63 113 218 0
57 122 212 63 128 218 0
57 173 233 63 179 239 0
68 80 192 74 86 198 0
68 80 255 74 86 261 0
68 93 107 74 99 113 0
68 93 155 74 99 161 0
68 93 192 74 99 198 0
68 107 138 74 113 144 0
68 107 255 74 113 261 0
68 138 192 74 144 198 0
68 155 255 74 161 261 0
80 192 233 86 198 239 0
80 212 255 86 218 261 0
93 122 155 99 128 161 0
93 155 233 99 161 239 0
93 192 233 99 198 239 0
107 138 173 113 144 179 0
107 138 212 113 144 218 0
107 212 255 113 218 261 0
122 155 255 128 161 261 0
122 212 255 128 218 261 0
138 173 192 144 179 198 0
173 192 233 179 198 239 0
13 31 32 27 34 36 0
13 39 40 27 42 44 0
13 48 49 27 51 53 0
13 58 59 27 61 63 0
13 69 70 27 72 74 0
13 81 82 27 84 86 0
13 94 95 27 97 99 0
13 108 109 27 111 113 0
13 123 124 27 126 128 0
13 139 140 27 142 144 0
13 156 157 27 159 161 0
13 174 175 27 177 179 0
13 193 194 27 196 198 0
13 213 214 27 216 218 0
13 234 235 27 237 239 0
13 256 257 27 259 261 0
13 31 39 32 40 34 42 0
13 31 48 32 49 34 51 0
13 31 58 32 59 34 61 0
13 31 69 32 70 34 72 0
13 31 123 32 124 34 126 0
13 31 139 32 140 34 142 0
13 31 156 32 157 34 159 0
13 31 174 32 175 34 177 0
13 39 48 40 49 42 51 0
13 39 81 40 82 42 84 0
13 39 94 40 95 42 97 0
13 39 123 40 124 42 126 0
13 39 139 40 140 42 142 0
13 39 193 40 194 42 196 0
13 39 213 40 214 42 216 0
13 48 81 49 82 51 84 0
13 48 108 49 109 51 111 0
13 48 156 49 157 51 159 0
13 48 174 49 175 51 177 0
13 48 234 49 235 51 237 0
13 48 256 49 257 51 259 0
13 58 81 59 82 61 84 0
13 58 94 59 95 61 97 0
13 58 108 59 109 61 111 0
13 58 123 59 124 61 126 0
13 58 174 59 175 61 177 0
13 58 213 59 214 61 216 0
13 58 234 59 235 61 237 0
13 69 81 70 82 72 84 0
13 69 94 70 95 72 97 0
13 69 108 70 109 72 111 0
13 69 139 70 140 72 142 0
13 69 156 70 157 72 159 0
13 69 193 70 194 72 196 0
13 69 256 70 257 72 259 0
13 81 193 82 194 84 196 0
13 81 213 82 214 84 216 0
13 81 234 82 235 84 237 0
13 81 256 82 257 84 259 0
13 94 108 95 109 97 111 0
13 94 123 95 124 97 126 0
13 94 156 95 157 97 159 0
13 94 193 95 194 97 196 0
13 94 234 95 235 97 237 0
13 108 139 109 140 111 142 0
13 108 174 109 175 111 177 0
13 108 213 109 214 111 216 0
13 108 256 109 257 111 259 0
13 123 156 124 157 126 159 0
13 123 213 124 214 126 216 0
13 123 256 124 257 126 259 0
13 139 174 140 175 142 177 0
13 139 193 140 194 142 196 0
13 139 213 140 214 142 216 0
13 156 234 157 235 159 237 0
13 156 256 157 257 159 259 0
13 174 193 175 194 177 196 0
13 174 234 175 235 177 237 0
13 193 234 194 235 196 237 0
13 213 256 214 257 216 259 0
31 32 35 36 0
39 40 43 44 0
48 49 52 53 0
58 59 62 63 0
69 70 73 74 0
81 82 85 86 0
94 95 98 99 0
108 109 112 113 0
123 124 127 128 0
139 140 143 144 0
156 157 160 161 0
174 175 178 179 0
193 194 197 198 0
213 214 217 218 0
234 235 238 239 0
256 257 260 261 0
31 39 32 40 35 43 0
31 48 32 49 35 52 0
31 58 32 59 35 62 0
31 69 32 70 35 73 0
31 123 32 124 35 127 0
31 139 32 140 35 143 0
31 156 32 157 35 160 0
31 174 32 175 35 178 0
39 48 40 49 43 52 0
39 81 40 82 43 85 0
39 94 40 95 43 98 0
39 123 40 124 43 127 0
39 139 40 140 43 143 0
39 193 40 194 43 197 0
39 213 40 214 43 217 0
48 81 49 82 52 85 0
48 108 49 109 52 112 0
48 156 49 157 52 160 0
48 174 49 175 52 178 0
48 234 49 235 52 238 0
48 256 49 257 52 260 0
58 81 59 82 62 85 0
58 94 59 95 62 98 0
58 108 59 109 62 112 0
58 123 59 124 62 127 0
58 174 59 175 62 178 0
58 213 59 214 62 217 0
58 234 59 235 62 238 0
69 81 70 82 73 85 0
69 94 70 95 73 98 0
69 108 70 109 73 112 0
69 139 70 140 73 143 0
69 156 70 157 73 160 0
69 193 70 194 73 197 0
69 256 70 257 73 260 0
81 193 82 194 85 197 0
81 213 82 214 85 217 0
81 234 82 235 85 238 0
81 256 82 257 85 260 0
94 108 95 109 98 112 0
94 123 95 124 98 127 0
94 156 95 157 98 160 0
94 193 95 194 98 197 0
94 234 95 235 98 238 0
108 139 109 140 112 143 0
108 174 109 175 112 178 0
108 213 109 214 112 217 0
108 256 109 257 112 260 0
123 156 124 157 127 160 0
123 213 124 214 127 217 0
123 256 124 257 127 260 0
139 174 140 175 143 178 0
139 193 140 194 143 197 0
139 213 140 214 143 217 0
156 234 157 235 160 238 0
156 256 157 257 160 260 0
174 193 175 194 178 197 0
174 234 175 235 178 238 0
193 234 194 235 197 238 0
213 256 214 257 217 260 0
31 39 32 40 36 44 0
31 48 32 49 36 53 0
31 58 32 59 36 63 0
31 69 32 70 36 74 0
31 123 32 124 36 128 0
31 139 32 140 36 144 0
31 156 32 157 36 161 0
31 174 32 175 36 179 0
39 48 40 49 44 53 0
39 81 40 82 44 86 0
39 94 40 95 44 99 0
39 123 40 124 44 128 0
39 139 40 140 44 144 0
39 193 40 194 44 198 0
39 213 40 214 44 218 0
48 81 49 82 53 86 0
48 108 49 109 53 113 0
48 156 49 157 53 161 0
48 174 49 175 53 179 0
48 234 49 235 53 239 0
48 256 49 257 53 261 0
58 81 59 82 63 86 0
58 94 59 95 63 99 0
58 108 59 109 63 113 0
58 123 59 124 63 128 0
58 174 59 175 63 179 0
58 213 59 214 63 218 0
58 234 59 235 63 239 0
69 81 70 82 74 86 0
69 94 70 95 74 99 0
69 108 70 109 74 113 0
69 139 70 140 74 144 0
69 156 70 157 74 161 0
69 193 70 194 74 198 0
69 256 70 257 74 261 0
81 193 82 194 86 198 0
81 213 82 214 86 218 0
81 234 82 235 86 239 0
81 256 82 257 86 261 0
94 108 95 109 99 113 0
94 123 95 124 99 128 0
94 156 95 157 99 161 0
94 193 95 194 99 198 0
94 234 95 235 99 239 0
108 139 109 140 113 144 0
108 174 109 175 113 179 0
108 213 109 214 113 218 0
108 256 109 257 113 261 0
123 156 124 157 128 161 0
123 213 124 214 128 218 0
123 256 124 257 128 261 0
139 174 140 175 144 179 0
139 193 140 194 144 198 0
139 213 140 214 144 218 0
156 234 157 235 161 239 0
156 256 157 257 161 261 0
174 193 175 194 179 198 0
174 234 175 235 179 239 0
193 234 194 235 198 239 0
213 256 214 257 218 261 0
31 39 48 32 40 49 0
31 39 123 32 40 124 0
31 39 139 32 40 140 0
31 48 156 32 49 157 0
31 48 174 32 49 175 0
31 58 123 32 59 124 0
31 58 174 32 59 175 0
31 69 139 32 70 140 0
31 69 156 32 70 157 0
31 123 156 32 124 157 0
31 139 174 32 140 175 0
39 48 81 40 49 82 0
39 81 193 40 82 194 0
39 81 213 40 82 214 0
39 94 123 40 95 124 0
39 94 193 40 95 194 0
39 123 213 40 124 214 0
39 139 193 40 140 194 0
39 139 213 40 140 214 0
48 81 234 49 82 235 0
48 81 256 49 82 257 0
48 108 174 49 109 175 0
48 108 256 49 109 257 0
48 156 234 49 157 235 0
48 156 256 49 157 257 0
48 174 234 49 175 235 0
58 81 213 59 82 214 0
58 81 234 59 82 235 0
58 94 108 59 95 109 0
58 94 123 59 95 124 0
58 94 234 59 95 235 0
58 108 174 59 109 175 0
58 108 213 59 109 214 0
58 123 213 59 124 214 0
58 174 234 59 175 235 0
69 81 193 70 82 194 0
69 81 256 70 82 257 0
69 94 108 70 95 109 0
69 94 156 70 95 157 0
69 94 193 70 95 194 0
69 108 139 70 109 140 0
69 108 256 70 109 257 0
69 139 193 70 140 194 0
69 156 256 70 157 257 0
81 193 234 82 194 235 0
81 213 256 82 214 257 0
94 123 156 95 124 157 0
94 156 234 95 157 235 0
94 193 234 95 194 235 0
108 139 174 109 140 175 0
108 139 213 109 140 214 0
108 213 256 109 214 257 0
123 156 256 124 157 257 0
123 213 256 124 214 257 0
139 174 193 140 175 194 0
174 193 234 175 194 235 0
13 31 39 33 41 34 42 0
13 31 48 33 50 34 51 0
13 31 58 33 60 34 61 0
13 31 69 33 71 34 72 0
13 31 123 33 125 34 126 0
13 31 139 33 141 34 142 0
13 31 156 33 158 34 159 0
13 31 174 33 176 34 177 0
13 39 48 41 50 42 51 0
13 39 81 41 83 42 84 0
13 39 94 41 96 42 97 0
13 39 123 41 125 42 126 0
13 39 139 41 141 42 142 0
13 39 193 41 195 42 196 0
13 39 213 41 215 42 216 0
13 48 81 50 83 51 84 0
13 48 108 50 110 51 111 0
13 48 156 50 158 51 159 0
13 48 174 50 176 51 177 0
13 48 234 50 236 51 237 0
13 48 256 50 258 51 259 0
13 58 81 60 83 61 84 0
13 58 94 60 96 61 97 0
13 58 108 60 110 61 111 0
13 58 123 60 125 61 126 0
13 58 174 60 176 61 177 0
13 58 213 60 215 61 216 0
13 58 234 60 236 61 237 0
13 69 81 71 83 72 84 0
13 69 94 71 96 72 97 0
13 69 108 71 110 72 111 0
13 69 139 71 141 72 142 0
13 69 156 71 158 72 159 0
13 69 193 71 195 72 196 0
13 69 256 71 258 72 259 0
13 81 193 83 195 84 196 0
13 81 213 83 215 84 216 0
13 81 234 83 236 84 237 0
13 81 256 83 258 84 259 0
13 94 108 96 110 97 111 0
13 94 123 96 125 97 126 0
13 94 156 96 158 97 159 0
13 94 193 96 195 97 196 0
13 94 234 96 236 97 237 0
13 108 139 110 141 111 142 0
13 108 174 110 176 111 177 0
13 108 213 110 215 111 216 0
13 108 256 110 258 111 259 0
13 123 156 125 158 126 159 0
13 123 213 125 215 126 216 0
13 123 256 125 258 126 259 0
13 139 174 141 176 142 177 0
13 139 193 141 195 142 196 0
13 139 213 141 215 142 216 0
13 156 234 158 236 159 237 0
13 156 256 158 258 159 259 0
13 174 193 176 195 177 196 0
13 174 234 176 236 177 237 0
13 193 234 195 236 196 237 0
13 213 256 215 258 216 259 0
31 39 48 33 41 50 0
31 39 123 33 41 125 0
31 39 139 33 41 141 0
31 48 156 33 50 158 0
31 48 174 33 50 176 0
31 58 123 33 60 125 0
31 58 174 33 60 176 0
31 69 139 33 71 141 0
31 69 156 33 71 158 0
31 123 156 33 125 158 0
31 139 174 33 141 176 0
39 48 81 41 50 83 0
39 81 193 41 83 195 0
39 81 213 41 83 215 0
39 94 123 41 96 125 0
39 94 193 41 96 195 0
39 123 213 41 125 215 0
39 139 193 41 141 195 0
39 139 213 41 141 215 0
48 81 234 50 83 236 0
48 81 256 50 83 258 0
48 108 174 50 110 176 0
48 108 256 50 110 258 0
48 156 234 50 158 236 0
48 156 256 50 158 258 0
48 174 234 50 176 236 0
58 81 213 60 83 215 0
58 81 234 60 83 236 0
58 94 108 60 96 110 0
58 94 123 60 96 125 0
58 94 234 60 96 236 0
58 108 174 60 110 176 0
58 108 213 60 110 215 0
58 123 213 60 125 215 0
58 174 234 60 176 236 0
69 81 193 71 83 195 0
69 81 256 71 83 258 0
69 94 108 71 96 110 0
69 94 156 71 96 158 0
69 94 193 71 96 195 0
69 108 139 71 110 141 0
69 108 256 71 110 258 0
69 139 193 71 141 195 0
69 156 256 71 158 258 0
81 193 234 83 195 236 0
81 213 256 83 215 258 0
94 123 156 96 125 158 0
94 156 234 96 158 236 0
94 193 234 96 195 236 0
108 139 174 110 141 176 0
108 139 213 110 141 215 0
108 213 256 110 215 258 0
123 156 256 125 158 258 0
123 213 256 125 215 258 0
139 174 193 141 176 195 0
174 193 234 176 195 236 0
13 31 39 27 34 42 36 44 0
13 31 48 27 34 51 36 53 0
13 31 58 27 34 61 36 63 0
13 31 69 27 34 72 36 74 0
13 31 123 27 34 126 36 128 0
13 31 139 27 34 142 36 144 0
13 31 156 27 34 159 36 161 0
13 31 174 27 34 177 36 179 0
13 39 48 27 42 51 44 53 0
13 39 81 27 42 84 44 86 0
13 39 94 27 42 97 44 99 0
13 39 123 27 42 126 44 128 0
13 39 139 27 42 142 44 144 0
13 39 193 27 42 196 44 198 0
13 39 213 27 42 216 44 218 0
13 48 81 27 51 84 53 86 0
13 48 108 27 51 111 53 113 0
13 48 156 27 51 159 53 161 0
13 48 174 27 51 177 53 179 0
13 48 234 27 51 237 53 239 0
13 48 256 27 51 259 53 261 0
13 58 81 27 61 84 63 86 0
13 58 94 27 61 97 63 99 0
13 58 108 27 61 111 63 113 0
13 58 123 27 61 126 63 128 0
13 58 174 27 61 177 63 179 0
13 58 213 27 61 216 63 218 0
13 58 234 27 61 237 63 239 0
13 69 81 27 72 84 74 86 0
13 69 94 27 72 97 74 99 0
13 69 108 27 72 111 74 113 0
13 69 139 27 72 142 74 144 0
13 69 156 27 72 159 74 161 0
13 69 193 27 72 196 74 198 0
13 69 256 27 72 259 74 261 0
13 81 193 27 84 196 86 198 0
13 81 213 27 84 216 86 218 0
13 81 234 27 84 237 86 239 0
13 81 256 27 84 259 86 261 0
13 94 108 27 97 111 99 113 0
13 94 123 27 97 126 99 128 0
13 94 156 27 97 159 99 161 0
13 94 193 27 97 196 99 198 0
13 94 234 27 97 237 99 239 0
13 108 139 27 111 142 113 144 0
13 108 174 27 111 177 113 179 0
13 108 213 27 111 216 113 218 0
13 108 256 27 111 259 113 261 0
13 123 156 27 126 159 128 161 0
13 123 213 27 126 216 128 218 0
13 123 256 27 126 259 128 261 0
13 139 174 27 142 177 144 179 0
13 139 193 27 142 196 144 198 0
13 139 213 27 142 216 144 218 0
13 156 234 27 159 237 161 239 0
13 156 256 27 159 259 161 261 0
13 174 193 27 177 196 179 198 0
13 174 234 27 177 237 179 239 0
13 193 234 27 196 237 198 239 0
13 213 256 27 216 259 218 261 0
13 31 39 48 34 42 51 0
13 31 39 123 34 42 126 0
13 31 39 139 34 42 142 0
13 31 48 156 34 51 159 0
13 31 48 174 34 51 177 0
13 31 58 123 34 61 126 0
13 31 58 174 34 61 177 0
13 31 69 139 34 72 142 0
13 31 69 156 34 72 159 0
13 31 123 156 34 126 159 0
13 31 139 174 34 142 177 0
13 39 48 81 42 51 84 0
13 39 81 193 42 84 196 0
13 39 81 213 42 84 216 0
13 39 94 123 42 97 126 0
13 39 94 193 42 97 196 0
13 39 123 213 42 126 216 0
13 39 139 193 42 142 196 0
13 39 139 213 42 142 216 0
13 48 81 234 51 84 237 0
13 48 81 256 51 84 259 0
13 48 108 174 51 111 177 0
13 48 108 256 51 111 259 0
13 48 156 234 51 159 237 0
13 48 156 256 51 159 259 0
13 48 174 234 51 177 237 0
13 58 81 213 61 84 216 0
13 58 81 234 61 84 237 0
13 58 94 108 61 97 111 0
13 58 94 123 61 97 126 0
13 58 94 234 61 97 237 0
13 58 108 174 61 111 177 0
13 58 108 213 61 111 216 0
13 58 123 213 61 126 216 0
13 58 174 234 61 177 237 0
13 69 81 193 72 84 196 0
13 69 81 256 72 84 259 0
13 69 94 108 72 97 111 0
13 69 94 156 72 97 159 0
13 69 94 193 72 97 196 0
13 69 108 139 72 111 142 0
13 69 108 256 72 111 259 0
13 69 139 193 72 142 196 0
13 69 156 256 72 159 259 0
13 81 193 234 84 196 237 0
13 81 213 256 84 216 259 0
13 94 123 156 97 126 159 0
13 94 156 234 97 159 237 0
13 94 193 234 97 196 237 0
13 108 139 174 111 142 177 0
13 108 139 213 111 142 216 0
13 108 213 256 111 216 259 0
13 123 156 256 126 159 259 0
13 123 213 256 126 216 259 0
13 139 174 193 142 177 196 0
13 174 193 234 177 196 237 0
31 39 35 43 36 44 0
31 48 35 52 36 53 0
31 58 35 62 36 63 0
31 69 35 73 36 74 0
31 123 35 127 36 128 0
31 139 35 143 36 144 0
31 156 35 160 36 161 0
31 174 35 178 36 179 0
39 48 43 52 44 53 0
39 81 43 85 44 86 0
39 94 43 98 44 99 0
39 123 43 127 44 128 0
39 139 43 143 44 144 0
39 193 43 197 44 198 0
39 213 43 217 44 218 0
48 81 52 85 53 86 0
48 108 52 112 53 113 0
48 156 52 160 53 161 0
48 174 52 178 53 179 0
48 234 52 238 53 239 0
48 256 52 260 53 261 0
58 81 62 85 63 86 0
58 94 62 98 63 99 0
58 108 62 112 63 113 0
58 123 62 127 63 128 0
58 174 62 178 63 179 0
58 213 62 217 63 218 0
58 234 62 238 63 239 0
69 81 73 85 74 86 0
69 94 73 98 74 99 0
69 108 73 112 74 113 0
69 139 73 143 74 144 0
69 156 73 160 74 161 0
69 193 73 197 74 198 0
69 256 73 260 74 261 0
81 193 85 197 86 198 0
81 213 85 217 86 218 0
81 234 85 238 86 239 0
81 256 85 260 86 261 0
94 108 98 112 99 113 0
94 123 98 127 99 128 0
94 156 98 160 99 161 0
94 193 98 197 99 198 0
94 234 98 238 99 239 0
108 139 112 143 113 144 0
108 174 112 178 113 179 0
108 213 112 217 113 218 0
108 256 112 260 113 261 0
123 156 127 160 128 161 0
123 213 127 217 128 218 0
123 256 127 260 128 261 0
139 174 143 178 144 179 0
139 193 143 197 144 198 0
139 213 143 217 144 218 0
156 234 160 238 161 239 0
156 256 160 260 161 261 0
174 193 178 197 179 198 0
174 234 178 238 179 239 0
193 234 197 238 198 239 0
213 256 217 260 218 261 0
31 39 48 35 43 52 0
31 39 123 35 43 127 0
31 39 139 35 43 143 0
31 48 156 35 52 160 0
31 48 174 35 52 178 0
31 58 123 35 62 127 0
31 58 174 35 62 178 0
31 69 139 35 73 143 0
31 69 156 35 73 160 0
31 123 156 35 127 160 0
31 139 174 35 143 178 0
39 48 81 43 52 85 0
39 81 193 43 85 197 0
39 81 213 43 85 217 0
39 94 123 43 98 127 0
39 94 193 43 98 197 0
39 123 213 43 127 217 0
39 139 193 43 143 197 0
39 139 213 43 143 217 0
48 81 234 52 85 238 0
48 81 256 52 85 260 0
48 108 174 52 112 178 0
48 108 256 52 112 260 0
48 156 234 52 160 238 0
48 156 256 52 160 260 0
48 174 234 52 178 238 0
58 81 213 62 85 217 0
58 81 234 62 85 238 0
58 94 108 62 98 112 0
58 94 123 62 98 127 0
58 94 234 62 98 238 0
58 108 174 62 112 178 0
58 108 213 62 112 217 0
58 123 213 62 127 217 0
58 174 234 62 178 238 0
69 81 193 73 85 197 0
69 81 256 73 85 260 0
69 94 108 73 98 112 0
69 94 156 73 98 160 0
69 94 193 73 98 197 0
69 108 139 73 112 143 0
69 108 256 73 112 260 0
69 139 193 73 143 197 0
69 156 256 73 160 260 0
81 193 234 85 197 238 0
81 213 256 85 217 260 0
94 123 156 98 127 160 0
94 156 234 98 160 238 0
94 193 234 98 197 238 0
108 139 174 112 143 178 0
108 139 213 112 143 217 0
108 213 256 112 217 260 0
123 156 256 127 160 260 0
123 213 256 127 217 260 0
139 174 193 143 178 197 0
174 193 234 178 197 238 0
31 39 48 36 44 53 0
31 39 123 36 44 128 0
31 39 139 36 44 144 0
31 48 156 36 53 161 0
31 48 174 36 53 179 0
31 58 123 36 63 128 0
31 58 174 36 63 179 0
31 69 139 36 74 144 0
31 69 156 36 74 161 0
31 123 156 36 128 161 0
31 139 174 36 144 179 0
39 48 81 44 53 86 0
39 81 193 44 86 198 0
39 81 213 44 86 218 0
39 94 123 44 99 128 0
39 94 193 44 99 198 0
39 123 213 44 128 218 0
39 139 193 44 144 198 0
39 139 213 44 144 218 0
48 81 234 53 86 239 0
48 81 256 53 86 261 0
48 108 174 53 113 179 0
48 108 256 53 113 261 0
48 156 234 53 161 239 0
48 156 256 53 161 261 0
48 174 234 53 179 239 0
58 81 213 63 86 218 0
58 81 234 63 86 239 0
58 94 108 63 99 113 0
58 94 123 63 99 128 0
58 94 234 63 99 239 0
58 108 174 63 113 179 0
58 108 213 63 113 218 0
58 123 213 63 128 218 0
58 174 234 63 179 239 0
69 81 193 74 86 198 0
69 81 256 74 86 261 0
69 94 108 74 99 113 0
69 94 156 74 99 161 0
69 94 193 74 99 198 0
69 108 139 74 113 144 0
69 108 256 74 113 261 0
69 139 193 74 144 198 0
69 156 256 74 161 261 0
81 193 234 86 198 239 0
81 213 256 86 218 261 0
94 123 156 99 128 161 0
94 156 234 99 161 239 0
94 193 234 99 198 239 0
108 139 174 113 144 179 0
108 139 213 113 144 218 0
108 213 256 113 218 261 0
123 156 256 128 161 261 0
123 213 256 128 218 261 0
139 174 193 144 179 198 0
174 193 234 179 198 239 0
32 40 27 34 42 36 44 0
32 49 27 34 51 36 53 0
32 59 27 34 61 36 63 0
32 70 27 34 72 36 74 0
32 124 27 34 126 36 128 0
32 140 27 34 142 36 144 0
32 157 27 34 159 36 161 0
32 175 27 34 177 36 179 0
40 49 27 42 51 44 53 0
40 82 27 42 84 44 86 0
40 95 27 42 97 44 99 0
40 124 27 42 126 44 128 0
40 140 27 42 142 44 144 0
40 194 27 42 196 44 198 0
40 214 27 42 216 44 218 0
49 82 27 51 84 53 86 0
49 109 27 51 111 53 113 0
49 157 27 51 159 53 161 0
49 175 27 51 177 53 179 0
49 235 27 51 237 53 239 0
49 257 27 51 259 53 261 0
59 82 27 61 84 63 86 0
59 95 27 61 97 63 99 0
59 109 27 61 111 63 113 0
59 124 27 61 126 63 128 0
59 175 27 61 177 63 179 0
59 214 27 61 216 63 218 0
59 235 27 61 237 63 239 0
70 82 27 72 84 74 86 0
70 95 27 72 97 74 99 0
70 109 27 72 111 74 113 0
70 140 27 72 142 74 144 0
70 157 27 72 159 74 161 0
70 194 27 72 196 74 198 0
70 257 27 72 259 74 261 0
82 194 27 84 196 86 198 0
82 214 27 84 216 86 218 0
82 235 27 84 237 86 239 0
82 257 27 84 259 86 261 0
95 109 27 97 111 99 113 0
95 124 27 97 126 99 128 0
95 157 27 97 159 99 161 0
95 194 27 97 196 99 198 0
95 235 27 97 237 99 239 0
109 140 27 111 142 113 144 0
109 175 27 111 177 113 179 0
109 214 27 111 216 113 218 0
109 257 27 111 259 113 261 0
124 157 27 126 159 128 161 0
124 214 27 126 216 128 218 0
124 257 27 126 259 128 261 0
140 175 27 142 177 144 179 0
140 194 27 142 196 144 198 0
140 214 27 142 216 144 218 0
157 235 27 159 237 161 239 0
157 257 27 159 259 161 261 0
175 194 27 177 196 179 198 0
175 235 27 177 237 179 239 0
194 235 27 196 237 198 239 0
214 257 27 216 259 218 261 0
32 40 49 34 42 51 0
32 40 124 34 42 126 0
32 40 140 34 42 142 0
32 49 157 34 51 159 0
32 49 175 34 51 177 0
32 59 124 34 61 126 0
32 59 175 34 61 177 0
32 70 140 34 72 142 0
32 70 157 34 72 159 0
32 124 157 34 126 159 0
32 140 175 34 142 177 0
40 49 82 42 51 84 0
40 82 194 42 84 196 0
40 82 214 42 84 216 0
40 95 124 42 97 126 0
40 95 194 42 97 196 0
40 124 214 42 126 216 0
40 140 194 42 142 196 0
40 140 214 42 142 216 0
49 82 235 51 84 237 0
49 82 257 51 84 259 0
49 109 175 51 111 177 0
49 109 257 51 111 259 0
49 157 235 51 159 237 0
49 157 257 51 159 259 0
49 175 235 51 177 237 0
59 82 214 61 84 216 0
59 82 235 61 84 237 0
59 95 109 61 97 111 0
59 95 124 61 97 126 0
59 95 235 61 97 237 0
59 109 175 61 111 177 0
59 109 214 61 111 216 0
59 124 214 61 126 216 0
59 175 235 61 177 237 0
70 82 194 72 84 196 0
70 82 257 72 84 259 0
70 95 109 72 97 111 0
70 95 157 72 97 159 0
70 95 194 72 97 196 0
70 109 140 72 111 142 0
70 109 257 72 111 259 0
70 140 194 72 142 196 0
70 157 257 72 159 259 0
82 194 235 84 196 237 0
82 214 257 84 216 259 0
95 124 157 97 126 159 0
95 157 235 97 159 237 0
95 194 235 97 196 237 0
109 140 175 111 142 177 0
109 140 214 111 142 216 0
109 214 257 111 216 259 0
124 157 257 126 159 259 0
124 214 257 126 216 259 0
140 175 194 142 177 196 0
175 194 235 177 196 237 0
32 40 35 43 36 44 0
32 49 35 52 36 53 0
32 59 35 62 36 63 0
32 70 35 73 36 74 0
32 124 35 127 36 128 0
32 140 35 143 36 144 0
32 157 35 160 36 161 0
32 175 35 178 36 179 0
40 49 43 52 44 53 0
40 82 43 85 44 86 0
40 95 43 98 44 99 0
40 124 43 127 44 128 0
40 140 43 143 44 144 0
40 194 43 197 44 198 0
40 214 43 217 44 218 0
49 82 52 85 53 86 0
49 109 52 112 53 113 0
49 157 52 160 53 161 0
49 175 52 178 53 179 0
49 235 52 238 53 239 0
49 257 52 260 53 261 0
59 82 62 85 63 86 0
59 95 62 98 63 99 0
59 109 62 112 63 113 0
59 124 62 127 63 128 0
59 175 62 178 63 179 0
59 214 62 217 63 218 0
59 235 62 238 63 239 0
70 82 73 85 74 86 0
70 95 73 98 74 99 0
70 109 73 112 74 113 0
70 140 73 143 74 144 0
70 157 73 160 74 161 0
70 194 73 197 74 198 0
70 257 73 260 74 261 0
82 194 85 197 86 198 0
82 214 85 217 86 218 0
82 235 85 238 86 239 0
82 257 85 260 86 261 0
95 109 98 112 99 113 0
95 124 98 127 99 128 0
95 157 98 160 99 161 0
95 194 98 197 99 198 0
95 235 98 238 99 239 0
109 140 112 143 113 144 0
109 175 112 178 113 179 0
109 214 112 217 113 218 0
109 257 112 260 113 261 0
124 157 127 160 128 161 0
124 214 127 217 128 218 0
124 257 127 260 128 261 0
140 175 143 178 144 179 0
140 194 143 197 144 198 0
140 214 143 217 144 218 0
157 235 160 238 161 239 0
157 257 160 260 161 261 0
175 194 178 197 179 198 0
175 235 178 238 179 239 0
194 235 197 238 198 239 0
214 257 217 260 218 261 0
32 40 49 35 43 52 0
32 40 124 35 43 127 0
32 40 140 35 43 143 0
32 49 157 35 52 160 0
32 49 175 35 52 178 0
32 59 124 35 62 127 0
32 59 175 35 62 178 0
32 70 140 35 73 143 0
32 70 157 35 73 160 0
32 124 157 35 127 160 0
32 140 175 35 143 178 0
40 49 82 43 52 85 0
40 82 194 43 85 197 0
40 82 214 43 85 217 0
40 95 124 43 98 127 0
40 95 194 43 98 197 0
40 124 214 43 127 217 0
40 140 194 43 143 197 0
40 140 214 43 143 217 0
49 82 235 52 85 238 0
49 82 257 52 85 260 0
49 109 175 52 112 178 0
49 109 257 52 112 260 0
49 157 235 52 160 238 0
49 157 257 52 160 260 0
49 175 235 52 178 238 0
59 82 214 62 85 217 0
59 82 235 62 85 238 0
59 95 109 62 98 112 0
59 95 124 62 98 127 0
59 95 235 62 98 238 0
59 109 175 62 112 178 0
59 109 214 62 112 217 0
59 124 214 62 127 217 0
59 175 235 62 178 238 0
70 82 194 73 85 197 0
70 82 257 73 85 260 0
70 95 109 73 98 112 0
70 95 157 73 98 160 0
70 95 194 73 98 197 0
70 109 140 73 112 143 0
70 109 257 73 112 260 0
70 140 194 73 143 197 0
70 157 257 73 160 260 0
82 194 235 85 197 238 0
82 214 257 85 217 260 0
95 124 157 98 127 160 0
95 157 235 98 160 238 0
95 194 235 98 197 238 0
109 140 175 112 143 178 0
109 140 214 112 143 217 0
109 214 257 112 217 260 0
124 157 257 127 160 260 0
124 214 257 127 217 260 0
140 175 194 143 178 197 0
175 194 235 178 197 238 0
32 40 49 36 44 53 0
32 40 124 36 44 128 0
32 40 140 36 44 144 0
32 49 157 36 53 161 0
32 49 175 36 53 179 0
32 59 124 36 63 128 0
32 59 175 36 63 179 0
32 70 140 36 74 144 0
32 70 157 36 74 161 0
32 124 157 36 128 161 0
32 140 175 36 144 179 0
40 49 82 44 53 86 0
40 82 194 44 86 198 0
40 82 214 44 86 218 0
40 95 124 44 99 128 0
40 95 194 44 99 198 0
40 124 214 44 128 218 0
40 140 194 44 144 198 0
40 140 214 44 144 218 0
49 82 235 53 86 239 0
49 82 257 53 86 261 0
49 109 175 53 113 179 0
49 109 257 53 113 261 0
49 157 235 53 161 239 0
49 157 257 53 161 261 0
49 175 235 53 179 239 0
59 82 214 63 86 218 0
59 82 235 63 86 239 0
59 95 109 63 99 113 0
59 95 124 63 99 128 0
59 95 235 63 99 239 0
59 109 175 63 113 179 0
59 109 214 63 113 218 0
59 124 214 63 128 218 0
59 175 235 63 179 239 0
70 82 194 74 86 198 0
70 82 257 74 86 261 0
70 95 109 74 99 113 0
70 95 157 74 99 161 0
70 95 194 74 99 198 0
70 109 140 74 113 144 0
70 109 257 74 113 261 0
70 140 194 74 144 198 0
70 157 257 74 161 261 0
82 194 235 86 198 239 0
82 214 257 86 218 261 0
95 124 157 99 128 161 0
95 157 235 99 161 239 0
95 194 235 99 198 239 0
109 140 175 113 144 179 0
109 140 214 113 144 218 0
109 214 257 113 218 261 0
124 157 257 128 161 261 0
124 214 257 128 218 261 0
140 175 194 144 179 198 0
175 194 235 179 198 239 0
33 41 50 34 42 51 0
33 41 125 34 42 126 0
33 41 141 34 42 142 0
33 50 158 34 51 159 0
33 50 176 34 51 177 0
33 60 125 34 61 126 0
33 60 176 34 61 177 0
33 71 141 34 72 142 0
33 71 158 34 72 159 0
33 125 158 34 126 159 0
33 141 176 34 142 177 0
41 50 83 42 51 84 0
41 83 195 42 84 196 0
41 83 215 42 84 216 0
41 96 125 42 97 126 0
41 96 195 42 97 196 0
41 125 215 42 126 216 0
41 141 195 42 142 196 0
41 141 215 42 142 216 0
50 83 236 51 84 237 0
50 83 258 51 84 259 0
50 110 176 51 111 177 0
50 110 258 51 111 259 0
50 158 236 51 159 237 0
50 158 258 51 159 259 0
50 176 236 51 177 237 0
60 83 215 61 84 216 0
60 83 236 61 84 237 0
60 96 110 61 97 111 0
60 96 125 61 97 126 0
60 96 236 61 97 237 0
60 110 176 61 111 177 0
60 110 215 61 111 216 0
60 125 215 61 126 216 0
60 176 236 61 177 237 0
71 83 195 72 84 196 0
71 83 258 72 84 259 0
71 96 110 72 97 111 0
71 96 158 72 97 159 0
71 96 195 72 97 196 0
71 110 141 72 111 142 0
71 110 258 72 111 259 0
71 141 195 72 142 196 0
71 158 258 72 159 259 0
83 195 236 84 196 237 0
83 215 258 84 216 259 0
96 125 158 97 126 159 0
96 158 236 97 159 237 0
96 195 236 97 196 237 0
110 141 176 111 142 177 0
110 141 215 111 142 216 0
110 215 258 111 216 259 0
125 158 258 126 159 259 0
125 215 258 126 216 259 0
141 176 195 142 177 196 0
176 195 236 177 196 237 0
27 34 42 51 36 44 53 0
27 34 42 126 36 44 128 0
27 34 42 142 36 44 144 0
27 34 51 159 36 53 161 0
27 34 51 177 36 53 179 0
27 34 61 126 36 63 128 0
27 34 61 177 36 63 179 0
27 34 72 142 36 74 144 0
27 34 72 159 36 74 161 0
27 34 126 159 36 128 161 0
27 34 142 177 36 144 179 0
27 42 51 84 44 53 86 0
27 42 84 196 44 86 198 0
27 42 84 216 44 86 218 0
27 42 97 126 44 99 128 0
27 42 97 196 44 99 198 0
27 42 126 216 44 128 218 0
27 42 142 196 44 144 198 0
27 42 142 216 44 144 218 0
27 51 84 237 53 86 239 0
27 51 84 259 53 86 261 0
27 51 111 177 53 113 179 0
27 51 111 259 53 113 261 0
27 51 159 237 53 161 239 0
27 51 159 259 53 161 261 0
27 51 177 237 53 179 239 0
27 61 84 216 63 86 218 0
27 61 84 237 63 86 239 0
27 61 97 111 63 99 113 0
27 61 97 126 63 99 128 0
27 61 97 237 63 99 239 0
27 61 111 177 63 113 179 0
27 61 111 216 63 113 218 0
27 61 126 216 63 128 218 0
27 61 177 237 63 179 239 0
27 72 84 196 74 86 198 0
27 72 84 259 74 86 261 0
27 72 97 111 74 99 113 0
27 72 97 159 74 99 161 0
27 72 97 196 74 99 198 0
27 72 111 142 74 113 144 0
27 72 111 259 74 113 261 0
27 72 142 196 74 144 198 0
27 72 159 259 74 161 261 0
27 84 196 237 86 198 239 0
27 84 216 259 86 218 261 0
27 97 126 159 99 128 161 0
27 97 159 237 99 161 239 0
27 97 196 237 99 198 239 0
27 111 142 177 113 144 179 0
27 111 142 216 113 144 218 0
27 111 216 259 113 218 261 0
27 126 159 259 128 161 261 0
27 126 216 259 128 218 261 0
27 142 177 196 144 179 198 0
27 177 196 237 179 198 239 0
35 43 52 36 44 53 0
35 43 127 36 44 128 0
35 43 143 36 44 144 0
35 52 160 36 53 161 0
35 52 178 36 53 179 0
35 62 127 36 63 128 0
35 62 178 36 63 179 0
35 73 143 36 74 144 0
35 73 160 36 74 161 0
35 127 160 36 128 161 0
35 143 178 36 144 179 0
43 52 85 44 53 86 0
43 85 197 44 86 198 0
43 85 217 44 86 218 0
43 98 127 44 99 128 0
43 98 197 44 99 198 0
43 127 217 44 128 218 0
43 143 197 44 144 198 0
43 143 217 44 144 218 0
52 85 238 53 86 239 0
52 85 260 53 86 261 0
52 112 178 53 113 179 0
52 112 260 53 113 261 0
52 160 238 53 161 239 0
52 160 260 53 161 261 0
52 178 238 53 179 239 0
62 85 217 63 86 218 0
62 85 238 63 86 239 0
62 98 112 63 99 113 0
62 98 127 63 99 128 0
62 98 238 63 99 239 0
62 112 178 63 113 179 0
62 112 217 63 113 218 0
62 127 217 63 128 218 0
62 178 238 63 179 239 0
73 85 197 74 86 198 0
73 85 260 74 86 261 0
73 98 112 74 99 113 0
73 98 160 74 99 161 0
73 98 197 74 99 198 0
73 112 143 74 113 144 0
73 112 260 74 113 261 0
73 143 197 74 144 198 0
73 160 260 74 161 261 0
85 197 238 86 198 239 0
85 217 260 86 218 261 0
98 127 160 99 128 161 0
98 160 238 99 161 239 0
98 197 238 99 198 239 0
112 143 178 113 144 179 0
112 143 217 113 144 218 0
112 217 260 113 218 261 0
127 160 260 128 161 261 0
127 217 260 128 218 261 0
143 178 197 144 179 198 0
178 197 238 179 198 239 0
