p cnf 276 2936
-1 -29 -79 -30 -80 0
-1 -29 -92 -30 -93 0
-1 -29 -106 -30 -107 0
-1 -29 -191 -30 -192 0
-1 -29 -211 -30 -212 0
-1 -29 -232 -30 -233 0
-1 -29 -254 -30 -255 0
-1 -37 -56 -38 -57 0
-1 -37 -92 -38 -93 0
-1 -37 -106 -38 -107 0
-1 -37 -137 -38 -138 0
-1 -37 -154 -38 -155 0
-1 -37 -172 -38 -173 0
-1 -37 -211 -38 -212 0
-1 -46 -67 -47 -68 0
-1 -46 -79 -47 -80 0
-1 -46 -106 -47 -107 0
-1 -46 -121 -47 -122 0
-1 -46 -137 -47 -138 0
-1 -46 -172 -47 -173 0
-1 -46 -254 -47 -255 0
-1 -56 -67 -57 -68 0
-1 -56 -79 -57 -80 0
-1 -56 -154 -57 -155 0
-1 -56 -172 -57 -173 0
-1 -56 -191 -57 -192 0
-1 -56 -232 -57 -233 0
-1 -67 -92 -68 -93 0
-1 -67 -121 -68 -122 0
-1 -67 -154 -68 -155 0
-1 -67 -232 -68 -233 0
-1 -67 -254 -68 -255 0
-1 -79 -121 -80 -122 0
-1 -79 -172 -80 -173 0
-1 -79 -191 -80 -192 0
-1 -79 -211 -80 -212 0
-1 -92 -121 -93 -122 0
-1 -92 -137 -93 -138 0
-1 -92 -211 -93 -212 0
-1 -92 -232 -93 -233 0
-1 -106 -137 -107 -138 0
-1 -106 -154 -107 -155 0
-1 -106 -191 -107 -192 0
-1 -106 -254 -107 -255 0
-1 -121 -137 -122 -138 0
-1 -121 -154 -122 -155 0
-1 -121 -191 -122 -192 0
-1 -121 -211 -122 -212 0
-1 -137 -172 -138 -173 0
-1 -137 -191 -138 -192 0
-1 -137 -232 -138 -233 0
-1 -154 -191 -155 -192 0
-1 -154 -211 -155 -212 0
-1 -154 -254 -155 -255 0
-1 -172 -211 -173 -212 0
-1 -172 -232 -173 -233 0
-1 -172 -254 -173 -255 0
-1 -191 -232 -192 -233 0
-1 -211 -254 -212 -255 0
-1 -232 -254 -233 -255 0
-2 -29 -79 -31 -81 0
-2 -29 -92 -31 -94 0
-2 -29 -106 -31 -108 0
-2 -29 -191 -31 -193 0
-2 -29 -211 -31 -213 0
-2 -29 -232 -31 -234 0
-2 -29 -254 -31 -256 0
-2 -37 -56 -39 -58 0
-2 -37 -92 -39 -94 0
-2 -37 -106 -39 -108 0
-2 -37 -137 -39 -139 0
-2 -37 -154 -39 -156 0
-2 -37 -172 -39 -174 0
-2 -37 -211 -39 -213 0
-2 -46 -67 -48 -69 0
-2 -46 -79 -48 -81 0
-2 -46 -106 -48 -108 0
-2 -46 -121 -48 -123 0
-2 -46 -137 -48 -139 0
-2 -46 -172 -48 -174 0
-2 -46 -254 -48 -256 0
-2 -56 -67 -58 -69 0
-2 -56 -79 -58 -81 0
-2 -56 -154 -58 -156 0
-2 -56 -172 -58 -174 0
-2 -56 -191 -58 -193 0
-2 -56 -232 -58 -234 0
-2 -67 -92 -69 -94 0
-2 -67 -121 -69 -123 0
-2 -67 -154 -69 -156 0
-2 -67 -232 -69 -234 0
-2 -67 -254 -69 -256 0
-2 -79 -121 -81 -123 0
-2 -79 -172 -81 -174 0
-2 -79 -191 -81 -193 0
-2 -79 -211 -81 -213 0
-2 -92 -121 -94 -123 0
-2 -92 -137 -94 -139 0
-2 -92 -211 -94 -213 0
-2 -92 -232 -94 -234 0
-2 -106 -137 -108 -139 0
-2 -106 -154 -108 -156 0
-2 -106 -191 -108 -193 0
-2 -106 -254 -108 -256 0
-2 -121 -137 -123 -139 0
-2 -121 -154 -123 -156 0
-2 -121 -191 -123 -193 0
-2 -121 -211 -123 -213 0
-2 -137 -172 -139 -174 0
-2 -137 -191 -139 -193 0
-2 -137 -232 -139 -234 0
-2 -154 -191 -156 -193 0
-2 -154 -211 -156 -213 0
-2 -154 -254 -156 -256 0
-2 -172 -211 -174 -213 0
-2 -172 -232 -174 -234 0
-2 -172 -254 -174 -256 0
-2 -191 -232 -193 -234 0
-2 -211 -254 -213 -256 0
-2 -232 -254 -234 -256 0
-29 -79 -35 -85 0
-29 -92 -35 -98 0
-29 -106 -35 -112 0
-29 -191 -35 -197 0
-29 -211 -35 -217 0
-29 -232 -35 -238 0
-29 -254 -35 -260 0
-37 -56 -43 -62 0
-37 -92 -43 -98 0
-37 -106 -43 -112 0
-37 -137 -43 -143 0
-37 -154 -43 -160 0
-37 -172 -43 -178 0
-37 -211 -43 -217 0
-46 -67 -52 -73 0
-46 -79 -52 -85 0
-46 -106 -52 -112 0
-46 -121 -52 -127 0
-46 -137 -52 -143 0
-46 -172 -52 -178 0
-46 -254 -52 -260 0
-56 -67 -62 -73 0
-56 -79 -62 -85 0
-56 -154 -62 -160 0
-56 -172 -62 -178 0
-56 -191 -62 -197 0
-56 -232 -62 -238 0
-67 -92 -73 -98 0
-67 -121 -73 -127 0
-67 -154 -73 -160 0
-67 -232 -73 -238 0
-67 -254 -73 -260 0
-79 -121 -85 -127 0
-79 -172 -85 -178 0
-79 -191 -85 -197 0
-79 -211 -85 -217 0
-92 -121 -98 -127 0
-92 -137 -98 -143 0
-92 -211 -98 -217 0
-92 -232 -98 -238 0
-106 -137 -112 -143 0
-106 -154 -112 -160 0
-106 -191 -112 -197 0
-106 -254 -112 -260 0
-121 -137 -127 -143 0
-121 -154 -127 -160 0
-121 -191 -127 -197 0
-121 -211 -127 -217 0
-137 -172 -143 -178 0
-137 -191 -143 -197 0
-137 -232 -143 -238 0
-154 -191 -160 -197 0
-154 -211 -160 -217 0
-154 -254 -160 -260 0
-172 -211 -178 -217 0
-172 -232 -178 -238 0
-172 -254 -178 -260 0
-191 -232 -197 -238 0
-211 -254 -217 -260 0
-232 -254 -238 -260 0
-29 -79 -36 -86 0
-29 -92 -36 -99 0
-29 -106 -36 -113 0
-29 -191 -36 -198 0
-29 -211 -36 -218 0
-29 -232 -36 -239 0
-29 -254 -36 -261 0
-37 -56 -44 -63 0
-37 -92 -44 -99 0
-37 -106 -44 -113 0
-37 -137 -44 -144 0
-37 -154 -44 -161 0
-37 -172 -44 -179 0
-37 -211 -44 -218 0
-46 -67 -53 -74 0
-46 -79 -53 -86 0
-46 -106 -53 -113 0
-46 -121 -53 -128 0
-46 -137 -53 -144 0
-46 -172 -53 -179 0
-46 -254 -53 -261 0
-56 -67 -63 -74 0
-56 -79 -63 -86 0
-56 -154 -63 -161 0
-56 -172 -63 -179 0
-56 -191 -63 -198 0
-56 -232 -63 -239 0
-67 -92 -74 -99 0
-67 -121 -74 -128 0
-67 -154 -74 -161 0
-67 -232 -74 -239 0
-67 -254 -74 -261 0
-79 -121 -86 -128 0
-79 -172 -86 -179 0
-79 -191 -86 -198 0
-79 -211 -86 -218 0
-92 -121 -99 -128 0
-92 -137 -99 -144 0
-92 -211 -99 -218 0
-92 -232 -99 -239 0
-106 -137 -113 -144 0
-106 -154 -113 -161 0
-106 -191 -113 -198 0
-106 -254 -113 -261 0
-121 -137 -128 -144 0
-121 -154 -128 -161 0
-121 -191 -128 -198 0
-121 -211 -128 -218 0
-137 -172 -144 -179 0
-137 -191 -144 -198 0
-137 -232 -144 -239 0
-154 -191 -161 -198 0
-154 -211 -161 -218 0
-154 -254 -161 -261 0
-172 -211 -179 -218 0
-172 -232 -179 -239 0
-172 -254 -179 -261 0
-191 -232 -198 -239 0
-211 -254 -218 -261 0
-232 -254 -239 -261 0
-29 -79 -191 0
-29 -79 -211 0
-29 -92 -211 0
-29 -92 -232 0
-29 -106 -191 0
-29 -106 -254 0
-29 -191 -232 0
-29 -211 -254 0
-29 -232 -254 0
-37 -56 -154 0
-37 -56 -172 0
-37 -92 -137 0
-37 -92 -211 0
-37 -106 -137 0
-37 -106 -154 0
-37 -137 -172 0
-37 -154 -211 0
-37 -172 -211 0
-46 -67 -121 0
-46 -67 -254 0
-46 -79 -121 0
-46 -79 -172 0
-46 -106 -137 0
-46 -106 -254 0
-46 -121 -137 0
-46 -137 -172 0
-46 -172 -254 0
-56 -67 -154 0
-56 -67 -232 0
-56 -79 -172 0
-56 -79 -191 0
-56 -154 -191 0
-56 -172 -232 0
-56 -191 -232 0
-67 -92 -121 0
-67 -92 -232 0
-67 -121 -154 0
-67 -154 -254 0
-67 -232 -254 0
-79 -121 -191 0
-79 -121 -211 0
-79 -172 -211 0
-92 -121 -137 0
-92 -121 -211 0
-92 -137 -232 0
-106 -137 -191 0
-106 -154 -191 0
-106 -154 -254 0
-121 -137 -191 0
-121 -154 -191 0
-121 -154 -211 0
-137 -172 -232 0
-137 -191 -232 0
-154 -211 -254 0
-172 -211 -254 0
-172 -232 -254 0
-30 -80 -32 -82 0
-30 -93 -32 -95 0
-30 -107 -32 -109 0
-30 -192 -32 -194 0
-30 -212 -32 -214 0
-30 -233 -32 -235 0
-30 -255 -32 -257 0
-38 -57 -40 -59 0
-38 -93 -40 -95 0
-38 -107 -40 -109 0
-38 -138 -40 -140 0
-38 -155 -40 -157 0
-38 -173 -40 -175 0
-38 -212 -40 -214 0
-47 -68 -49 -70 0
-47 -80 -49 -82 0
-47 -107 -49 -109 0
-47 -122 -49 -124 0
-47 -138 -49 -140 0
-47 -173 -49 -175 0
-47 -255 -49 -257 0
-57 -68 -59 -70 0
-57 -80 -59 -82 0
-57 -155 -59 -157 0
-57 -173 -59 -175 0
-57 -192 -59 -194 0
-57 -233 -59 -235 0
-68 -93 -70 -95 0
-68 -122 -70 -124 0
-68 -155 -70 -157 0
-68 -233 -70 -235 0
-68 -255 -70 -257 0
-80 -122 -82 -124 0
-80 -173 -82 -175 0
-80 -192 -82 -194 0
-80 -212 -82 -214 0
-93 -122 -95 -124 0
-93 -138 -95 -140 0
-93 -212 -95 -214 0
-93 -233 -95 -235 0
-107 -138 -109 -140 0
-107 -155 -109 -157 0
-107 -192 -109 -194 0
-107 -255 -109 -257 0
-122 -138 -124 -140 0
-122 -155 -124 -157 0
-122 -192 -124 -194 0
-122 -212 -124 -214 0
-138 -173 -140 -175 0
-138 -192 -140 -194 0
-138 -233 -140 -235 0
-155 -192 -157 -194 0
-155 -212 -157 -214 0
-155 -255 -157 -257 0
-173 -212 -175 -214 0
-173 -233 -175 -235 0
-173 -255 -175 -257 0
-192 -233 -194 -235 0
-212 -255 -214 -257 0
-233 -255 -235 -257 0
-8 -30 -80 -33 -83 0
-8 -30 -93 -33 -96 0
-8 -30 -107 -33 -110 0
-8 -30 -192 -33 -195 0
-8 -30 -212 -33 -215 0
-8 -30 -233 -33 -236 0
-8 -30 -255 -33 -258 0
-8 -38 -57 -41 -60 0
-8 -38 -93 -41 -96 0
-8 -38 -107 -41 -110 0
-8 -38 -138 -41 -141 0
-8 -38 -155 -41 -158 0
-8 -38 -173 -41 -176 0
-8 -38 -212 -41 -215 0
-8 -47 -68 -50 -71 0
-8 -47 -80 -50 -83 0
-8 -47 -107 -50 -110 0
-8 -47 -122 -50 -125 0
-8 -47 -138 -50 -141 0
-8 -47 -173 -50 -176 0
-8 -47 -255 -50 -258 0
-8 -57 -68 -60 -71 0
-8 -57 -80 -60 -83 0
-8 -57 -155 -60 -158 0
-8 -57 -173 -60 -176 0
-8 -57 -192 -60 -195 0
-8 -57 -233 -60 -236 0
-8 -68 -93 -71 -96 0
-8 -68 -122 -71 -125 0
-8 -68 -155 -71 -158 0
-8 -68 -233 -71 -236 0
-8 -68 -255 -71 -258 0
-8 -80 -122 -83 -125 0
-8 -80 -173 -83 -176 0
-8 -80 -192 -83 -195 0
-8 -80 -212 -83 -215 0
-8 -93 -122 -96 -125 0
-8 -93 -138 -96 -141 0
-8 -93 -212 -96 -215 0
-8 -93 -233 -96 -236 0
-8 -107 -138 -110 -141 0
-8 -107 -155 -110 -158 0
-8 -107 -192 -110 -195 0
-8 -107 -255 -110 -258 0
-8 -122 -138 -125 -141 0
-8 -122 -155 -125 -158 0
-8 -122 -192 -125 -195 0
-8 -122 -212 -125 -215 0
-8 -138 -173 -141 -176 0
-8 -138 -192 -141 -195 0
-8 -138 -233 -141 -236 0
-8 -155 -192 -158 -195 0
-8 -155 -212 -158 -215 0
-8 -155 -255 -158 -258 0
-8 -173 -212 -176 -215 0
-8 -173 -233 -176 -236 0
-8 -173 -255 -176 -258 0
-8 -192 -233 -195 -236 0
-8 -212 -255 -215 -258 0
-8 -233 -255 -236 -258 0
-30 -80 -34 -84 0
-30 -93 -34 -97 0
-30 -107 -34 -111 0
-30 -192 -34 -196 0
-30 -212 -34 -216 0
-30 -233 -34 -237 0
-30 -255 -34 -259 0
-38 -57 -42 -61 0
-38 -93 -42 -97 0
-38 -107 -42 -111 0
-38 -138 -42 -142 0
-38 -155 -42 -159 0
-38 -173 -42 -177 0
-38 -212 -42 -216 0
-47 -68 -51 -72 0
-47 -80 -51 -84 0
-47 -107 -51 -111 0
-47 -122 -51 -126 0
-47 -138 -51 -142 0
-47 -173 -51 -177 0
-47 -255 -51 -259 0
-57 -68 -61 -72 0
-57 -80 -61 -84 0
-57 -155 -61 -159 0
-57 -173 -61 -177 0
-57 -192 -61 -196 0
-57 -233 -61 -237 0
-68 -93 -72 -97 0
-68 -122 -72 -126 0
-68 -155 -72 -159 0
-68 -233 -72 -237 0
-68 -255 -72 -259 0
-80 -122 -84 -126 0
-80 -173 -84 -177 0
-80 -192 -84 -196 0
-80 -212 -84 -216 0
-93 -122 -97 -126 0
-93 -138 -97 -142 0
-93 -212 -97 -216 0
-93 -233 -97 -237 0
-107 -138 -111 -142 0
-107 -155 -111 -159 0
-107 -192 -111 -196 0
-107 -255 -111 -259 0
-122 -138 -126 -142 0
-122 -155 -126 -159 0
-122 -192 -126 -196 0
-122 -212 -126 -216 0
-138 -173 -142 -177 0
-138 -192 -142 -196 0
-138 -233 -142 -237 0
-155 -192 -159 -196 0
-155 -212 -159 -216 0
-155 -255 -159 -259 0
-173 -212 -177 -216 0
-173 -233 -177 -237 0
-173 -255 -177 -259 0
-192 -233 -196 -237 0
-212 -255 -216 -259 0
-233 -255 -237 -259 0
-30 -80 -192 0
-30 -80 -212 0
-30 -93 -212 0
-30 -93 -233 0
-30 -107 -192 0
-30 -107 -255 0
-30 -192 -233 0
-30 -212 -255 0
-30 -233 -255 0
-38 -57 -155 0
-38 -57 -173 0
-38 -93 -138 0
-38 -93 -212 0
-38 -107 -138 0
-38 -107 -155 0
-38 -138 -173 0
-38 -155 -212 0
-38 -173 -212 0
-47 -68 -122 0
-47 -68 -255 0
-47 -80 -122 0
-47 -80 -173 0
-47 -107 -138 0
-47 -107 -255 0
-47 -122 -138 0
-47 -138 -173 0
-47 -173 -255 0
-57 -68 -155 0
-57 -68 -233 0
-57 -80 -173 0
-57 -80 -192 0
-57 -155 -192 0
-57 -173 -233 0
-57 -192 -233 0
-68 -93 -122 0
-68 -93 -233 0
-68 -122 -155 0
-68 -155 -255 0
-68 -233 -255 0
-80 -122 -192 0
-80 -122 -212 0
-80 -173 -212 0
-93 -122 -138 0
-93 -122 -212 0
-93 -138 -233 0
-107 -138 -192 0
-107 -155 -192 0
-107 -155 -255 0
-122 -138 -192 0
-122 -155 -192 0
-122 -155 -212 0
-138 -173 -233 0
-138 -192 -233 0
-155 -212 -255 0
-173 -212 -255 0
-173 -233 -255 0
-31 -81 -32 -82 0
-31 -94 -32 -95 0
-31 -108 -32 -109 0
-31 -193 -32 -194 0
-31 -213 -32 -214 0
-31 -234 -32 -235 0
-31 -256 -32 -257 0
-39 -58 -40 -59 0
-39 -94 -40 -95 0
-39 -108 -40 -109 0
-39 -139 -40 -140 0
-39 -156 -40 -157 0
-39 -174 -40 -175 0
-39 -213 -40 -214 0
-48 -69 -49 -70 0
-48 -81 -49 -82 0
-48 -108 -49 -109 0
-48 -123 -49 -124 0
-48 -139 -49 -140 0
-48 -174 -49 -175 0
-48 -256 -49 -257 0
-58 -69 -59 -70 0
-58 -81 -59 -82 0
-58 -156 -59 -157 0
-58 -174 -59 -175 0
-58 -193 -59 -194 0
-58 -234 -59 -235 0
-69 -94 -70 -95 0
-69 -123 -70 -124 0
-69 -156 -70 -157 0
-69 -234 -70 -235 0
-69 -256 -70 -257 0
-81 -123 -82 -124 0
-81 -174 -82 -175 0
-81 -193 -82 -194 0
-81 -213 -82 -214 0
-94 -123 -95 -124 0
-94 -139 -95 -140 0
-94 -213 -95 -214 0
-94 -234 -95 -235 0
-108 -139 -109 -140 0
-108 -156 -109 -157 0
-108 -193 -109 -194 0
-108 -256 -109 -257 0
-123 -139 -124 -140 0
-123 -156 -124 -157 0
-123 -193 -124 -194 0
-123 -213 -124 -214 0
-139 -174 -140 -175 0
-139 -193 -140 -194 0
-139 -234 -140 -235 0
-156 -193 -157 -194 0
-156 -213 -157 -214 0
-156 -256 -157 -257 0
-174 -213 -175 -214 0
-174 -234 -175 -235 0
-174 -256 -175 -257 0
-193 -234 -194 -235 0
-213 -256 -214 -257 0
-234 -256 -235 -257 0
-31 -81 -33 -83 0
-31 -94 -33 -96 0
-31 -108 -33 -110 0
-31 -193 -33 -195 0
-31 -213 -33 -215 0
-31 -234 -33 -236 0
-31 -256 -33 -258 0
-39 -58 -41 -60 0
-39 -94 -41 -96 0
-39 -108 -41 -110 0
-39 -139 -41 -141 0
-39 -156 -41 -158 0
-39 -174 -41 -176 0
-39 -213 -41 -215 0
-48 -69 -50 -71 0
-48 -81 -50 -83 0
-48 -108 -50 -110 0
-48 -123 -50 -125 0
-48 -139 -50 -141 0
-48 -174 -50 -176 0
-48 -256 -50 -258 0
-58 -69 -60 -71 0
-58 -81 -60 -83 0
-58 -156 -60 -158 0
-58 -174 -60 -176 0
-58 -193 -60 -195 0
-58 -234 -60 -236 0
-69 -94 -71 -96 0
-69 -123 -71 -125 0
-69 -156 -71 -158 0
-69 -234 -71 -236 0
-69 -256 -71 -258 0
-81 -123 -83 -125 0
-81 -174 -83 -176 0
-81 -193 -83 -195 0
-81 -213 -83 -215 0
-94 -123 -96 -125 0
-94 -139 -96 -141 0
-94 -213 -96 -215 0
-94 -234 -96 -236 0
-108 -139 -110 -141 0
-108 -156 -110 -158 0
-108 -193 -110 -195 0
-108 -256 -110 -258 0
-123 -139 -125 -141 0
-123 -156 -125 -158 0
-123 -193 -125 -195 0
-123 -213 -125 -215 0
-139 -174 -141 -176 0
-139 -193 -141 -195 0
-139 -234 -141 -236 0
-156 -193 -158 -195 0
-156 -213 -158 -215 0
-156 -256 -158 -258 0
-174 -213 -176 -215 0
-174 -234 -176 -236 0
-174 -256 -176 -258 0
-193 -234 -195 -236 0
-213 -256 -215 -258 0
-234 -256 -236 -258 0
-31 -81 -34 -84 0
-31 -94 -34 -97 0
-31 -108 -34 -111 0
-31 -193 -34 -196 0
-31 -213 -34 -216 0
-31 -234 -34 -237 0
-31 -256 -34 -259 0
-39 -58 -42 -61 0
-39 -94 -42 -97 0
-39 -108 -42 -111 0
-39 -139 -42 -142 0
-39 -156 -42 -159 0
-39 -174 -42 -177 0
-39 -213 -42 -216 0
-48 -69 -51 -72 0
-48 -81 -51 -84 0
-48 -108 -51 -111 0
-48 -123 -51 -126 0
-48 -139 -51 -142 0
-48 -174 -51 -177 0
-48 -256 -51 -259 0
-58 -69 -61 -72 0
-58 -81 -61 -84 0
-58 -156 -61 -159 0
-58 -174 -61 -177 0
-58 -193 -61 -196 0
-58 -234 -61 -237 0
-69 -94 -72 -97 0
-69 -123 -72 -126 0
-69 -156 -72 -159 0
-69 -234 -72 -237 0
-69 -256 -72 -259 0
-81 -123 -84 -126 0
-81 -174 -84 -177 0
-81 -193 -84 -196 0
-81 -213 -84 -216 0
-94 -123 -97 -126 0
-94 -139 -97 -142 0
-94 -213 -97 -216 0
-94 -234 -97 -237 0
-108 -139 -111 -142 0
-108 -156 -111 -159 0
-108 -193 -111 -196 0
-108 -256 -111 -259 0
-123 -139 -126 -142 0
-123 -156 -126 -159 0
-123 -193 -126 -196 0
-123 -213 -126 -216 0
-139 -174 -142 -177 0
-139 -193 -142 -196 0
-139 -234 -142 -237 0
-156 -193 -159 -196 0
-156 -213 -159 -216 0
-156 -256 -159 -259 0
-174 -213 -177 -216 0
-174 -234 -177 -237 0
-174 -256 -177 -259 0
-193 -234 -196 -237 0
-213 -256 -216 -259 0
-234 -256 -237 -259 0
-31 -81 -193 0
-31 -81 -213 0
-31 -94 -213 0
-31 -94 -234 0
-31 -108 -193 0
-31 -108 -256 0
-31 -193 -234 0
-31 -213 -256 0
-31 -234 -256 0
-39 -58 -156 0
-39 -58 -174 0
-39 -94 -139 0
-39 -94 -213 0
-39 -108 -139 0
-39 -108 -156 0
-39 -139 -174 0
-39 -156 -213 0
-39 -174 -213 0
-48 -69 -123 0
-48 -69 -256 0
-48 -81 -123 0
-48 -81 -174 0
-48 -108 -139 0
-48 -108 -256 0
-48 -123 -139 0
-48 -139 -174 0
-48 -174 -256 0
-58 -69 -156 0
-58 -69 -234 0
-58 -81 -174 0
-58 -81 -193 0
-58 -156 -193 0
-58 -174 -234 0
-58 -193 -234 0
-69 -94 -123 0
-69 -94 -234 0
-69 -123 -156 0
-69 -156 -256 0
-69 -234 -256 0
-81 -123 -193 0
-81 -123 -213 0
-81 -174 -213 0
-94 -123 -139 0
-94 -123 -213 0
-94 -139 -234 0
-108 -139 -193 0
-108 -156 -193 0
-108 -156 -256 0
-123 -139 -193 0
-123 -156 -193 0
-123 -156 -213 0
-139 -174 -234 0
-139 -193 -234 0
-156 -213 -256 0
-174 -213 -256 0
-174 -234 -256 0
-32 -82 -35 -85 0
-32 -95 -35 -98 0
-32 -109 -35 -112 0
-32 -194 -35 -197 0
-32 -214 -35 -217 0
-32 -235 -35 -238 0
-32 -257 -35 -260 0
-40 -59 -43 -62 0
-40 -95 -43 -98 0
-40 -109 -43 -112 0
-40 -140 -43 -143 0
-40 -157 -43 -160 0
-40 -175 -43 -178 0
-40 -214 -43 -217 0
-49 -70 -52 -73 0
-49 -82 -52 -85 0
-49 -109 -52 -112 0
-49 -124 -52 -127 0
-49 -140 -52 -143 0
-49 -175 -52 -178 0
-49 -257 -52 -260 0
-59 -70 -62 -73 0
-59 -82 -62 -85 0
-59 -157 -62 -160 0
-59 -175 -62 -178 0
-59 -194 -62 -197 0
-59 -235 -62 -238 0
-70 -95 -73 -98 0
-70 -124 -73 -127 0
-70 -157 -73 -160 0
-70 -235 -73 -238 0
-70 -257 -73 -260 0
-82 -124 -85 -127 0
-82 -175 -85 -178 0
-82 -194 -85 -197 0
-82 -214 -85 -217 0
-95 -124 -98 -127 0
-95 -140 -98 -143 0
-95 -214 -98 -217 0
-95 -235 -98 -238 0
-109 -140 -112 -143 0
-109 -157 -112 -160 0
-109 -194 -112 -197 0
-109 -257 -112 -260 0
-124 -140 -127 -143 0
-124 -157 -127 -160 0
-124 -194 -127 -197 0
-124 -214 -127 -217 0
-140 -175 -143 -178 0
-140 -194 -143 -197 0
-140 -235 -143 -238 0
-157 -194 -160 -197 0
-157 -214 -160 -217 0
-157 -257 -160 -260 0
-175 -214 -178 -217 0
-175 -235 -178 -238 0
-175 -257 -178 -260 0
-194 -235 -197 -238 0
-214 -257 -217 -260 0
-235 -257 -238 -260 0
-32 -82 -36 -86 0
-32 -95 -36 -99 0
-32 -109 -36 -113 0
-32 -194 -36 -198 0
-32 -214 -36 -218 0
-32 -235 -36 -239 0
-32 -257 -36 -261 0
-40 -59 -44 -63 0
-40 -95 -44 -99 0
-40 -109 -44 -113 0
-40 -140 -44 -144 0
-40 -157 -44 -161 0
-40 -175 -44 -179 0
-40 -214 -44 -218 0
-49 -70 -53 -74 0
-49 -82 -53 -86 0
-49 -109 -53 -113 0
-49 -124 -53 -128 0
-49 -140 -53 -144 0
-49 -175 -53 -179 0
-49 -257 -53 -261 0
-59 -70 -63 -74 0
-59 -82 -63 -86 0
-59 -157 -63 -161 0
-59 -175 -63 -179 0
-59 -194 -63 -198 0
-59 -235 -63 -239 0
-70 -95 -74 -99 0
-70 -124 -74 -128 0
-70 -157 -74 -161 0
-70 -235 -74 -239 0
-70 -257 -74 -261 0
-82 -124 -86 -128 0
-82 -175 -86 -179 0
-82 -194 -86 -198 0
-82 -214 -86 -218 0
-95 -124 -99 -128 0
-95 -140 -99 -144 0
-95 -214 -99 -218 0
-95 -235 -99 -239 0
-109 -140 -113 -144 0
-109 -157 -113 -161 0
-109 -194 -113 -198 0
-109 -257 -113 -261 0
-124 -140 -128 -144 0
-124 -157 -128 -161 0
-124 -194 -128 -198 0
-124 -214 -128 -218 0
-140 -175 -144 -179 0
-140 -194 -144 -198 0
-140 -235 -144 -239 0
-157 -194 -161 -198 0
-157 -214 -161 -218 0
-157 -257 -161 -261 0
-175 -214 -179 -218 0
-175 -235 -179 -239 0
-175 -257 -179 -261 0
-194 -235 -198 -239 0
-214 -257 -218 -261 0
-235 -257 -239 -261 0
-32 -82 -194 0
-32 -82 -214 0
-32 -95 -214 0
-32 -95 -235 0
-32 -109 -194 0
-32 -109 -257 0
-32 -194 -235 0
-32 -214 -257 0
-32 -235 -257 0
-40 -59 -157 0
-40 -59 -175 0
-40 -95 -140 0
-40 -95 -214 0
-40 -109 -140 0
-40 -109 -157 0
-40 -140 -175 0
-40 -157 -214 0
-40 -175 -214 0
-49 -70 -124 0
-49 -70 -257 0
-49 -82 -124 0
-49 -82 -175 0
-49 -109 -140 0
-49 -109 -257 0
-49 -124 -140 0
-49 -140 -175 0
-49 -175 -257 0
-59 -70 -157 0
-59 -70 -235 0
-59 -82 -175 0
-59 -82 -194 0
-59 -157 -194 0
-59 -175 -235 0
-59 -194 -235 0
-70 -95 -124 0
-70 -95 -235 0
-70 -124 -157 0
-70 -157 -257 0
-70 -235 -257 0
-82 -124 -194 0
-82 -124 -214 0
-82 -175 -214 0
-95 -124 -140 0
-95 -124 -214 0
-95 -140 -235 0
-109 -140 -194 0
-109 -157 -194 0
-109 -157 -257 0
-124 -140 -194 0
-124 -157 -194 0
-124 -157 -214 0
-140 -175 -235 0
-140 -194 -235 0
-157 -214 -257 0
-175 -214 -257 0
-175 -235 -257 0
-33 -83 -35 -85 0
-33 -96 -35 -98 0
-33 -110 -35 -112 0
-33 -195 -35 -197 0
-33 -215 -35 -217 0
-33 -236 -35 -238 0
-33 -258 -35 -260 0
-41 -60 -43 -62 0
-41 -96 -43 -98 0
-41 -110 -43 -112 0
-41 -141 -43 -143 0
-41 -158 -43 -160 0
-41 -176 -43 -178 0
-41 -215 -43 -217 0
-50 -71 -52 -73 0
-50 -83 -52 -85 0
-50 -110 -52 -112 0
-50 -125 -52 -127 0
-50 -141 -52 -143 0
-50 -176 -52 -178 0
-50 -258 -52 -260 0
-60 -71 -62 -73 0
-60 -83 -62 -85 0
-60 -158 -62 -160 0
-60 -176 -62 -178 0
-60 -195 -62 -197 0
-60 -236 -62 -238 0
-71 -96 -73 -98 0
-71 -125 -73 -127 0
-71 -158 -73 -160 0
-71 -236 -73 -238 0
-71 -258 -73 -260 0
-83 -125 -85 -127 0
-83 -176 -85 -178 0
-83 -195 -85 -197 0
-83 -215 -85 -217 0
-96 -125 -98 -127 0
-96 -141 -98 -143 0
-96 -215 -98 -217 0
-96 -236 -98 -238 0
-110 -141 -112 -143 0
-110 -158 -112 -160 0
-110 -195 -112 -197 0
-110 -258 -112 -260 0
-125 -141 -127 -143 0
-125 -158 -127 -160 0
-125 -195 -127 -197 0
-125 -215 -127 -217 0
-141 -176 -143 -178 0
-141 -195 -143 -197 0
-141 -236 -143 -238 0
-158 -195 -160 -197 0
-158 -215 -160 -217 0
-158 -258 -160 -260 0
-176 -215 -178 -217 0
-176 -236 -178 -238 0
-176 -258 -178 -260 0
-195 -236 -197 -238 0
-215 -258 -217 -260 0
-236 -258 -238 -260 0
-33 -83 -36 -86 0
-33 -96 -36 -99 0
-33 -110 -36 -113 0
-33 -195 -36 -198 0
-33 -215 -36 -218 0
-33 -236 -36 -239 0
-33 -258 -36 -261 0
-41 -60 -44 -63 0
-41 -96 -44 -99 0
-41 -110 -44 -113 0
-41 -141 -44 -144 0
-41 -158 -44 -161 0
-41 -176 -44 -179 0
-41 -215 -44 -218 0
-50 -71 -53 -74 0
-50 -83 -53 -86 0
-50 -110 -53 -113 0
-50 -125 -53 -128 0
-50 -141 -53 -144 0
-50 -176 -53 -179 0
-50 -258 -53 -261 0
-60 -71 -63 -74 0
-60 -83 -63 -86 0
-60 -158 -63 -161 0
-60 -176 -63 -179 0
-60 -195 -63 -198 0
-60 -236 -63 -239 0
-71 -96 -74 -99 0
-71 -125 -74 -128 0
-71 -158 -74 -161 0
-71 -236 -74 -239 0
-71 -258 -74 -261 0
-83 -125 -86 -128 0
-83 -176 -86 -179 0
-83 -195 -86 -198 0
-83 -215 -86 -218 0
-96 -125 -99 -128 0
-96 -141 -99 -144 0
-96 -215 -99 -218 0
-96 -236 -99 -239 0
-110 -141 -113 -144 0
-110 -158 -113 -161 0
-110 -195 -113 -198 0
-110 -258 -113 -261 0
-125 -141 -128 -144 0
-125 -158 -128 -161 0
-125 -195 -128 -198 0
-125 -215 -128 -218 0
-141 -176 -144 -179 0
-141 -195 -144 -198 0
-141 -236 -144 -239 0
-158 -195 -161 -198 0
-158 -215 -161 -218 0
-158 -258 -161 -261 0
-176 -215 -179 -218 0
-176 -236 -179 -239 0
-176 -258 -179 -261 0
-195 -236 -198 -239 0
-215 -258 -218 -261 0
-236 -258 -239 -261 0
-33 -83 -195 0
-33 -83 -215 0
-33 -96 -215 0
-33 -96 -236 0
-33 -110 -195 0
-33 -110 -258 0
-33 -195 -236 0
-33 -215 -258 0
-33 -236 -258 0
-41 -60 -158 0
-41 -60 -176 0
-41 -96 -141 0
-41 -96 -215 0
-41 -110 -141 0
-41 -110 -158 0
-41 -141 -176 0
-41 -158 -215 0
-41 -176 -215 0
-50 -71 -125 0
-50 -71 -258 0
-50 -83 -125 0
-50 -83 -176 0
-50 -110 -141 0
-50 -110 -258 0
-50 -125 -141 0
-50 -141 -176 0
-50 -176 -258 0
-60 -71 -158 0
-60 -71 -236 0
-60 -83 -176 0
-60 -83 -195 0
-60 -158 -195 0
-60 -176 -236 0
-60 -195 -236 0
-71 -96 -125 0
-71 -96 -236 0
-71 -125 -158 0
-71 -158 -258 0
-71 -236 -258 0
-83 -125 -195 0
-83 -125 -215 0
-83 -176 -215 0
-96 -125 -141 0
-96 -125 -215 0
-96 -141 -236 0
-110 -141 -195 0
-110 -158 -195 0
-110 -158 -258 0
-125 -141 -195 0
-125 -158 -195 0
-125 -158 -215 0
-141 -176 -236 0
-141 -195 -236 0
-158 -215 -258 0
-176 -215 -258 0
-176 -236 -258 0
-34 -84 -35 -85 0
-34 -97 -35 -98 0
-34 -111 -35 -112 0
-34 -196 -35 -197 0
-34 -216 -35 -217 0
-34 -237 -35 -238 0
-34 -259 -35 -260 0
-42 -61 -43 -62 0
-42 -97 -43 -98 0
-42 -111 -43 -112 0
-42 -142 -43 -143 0
-42 -159 -43 -160 0
-42 -177 -43 -178 0
-42 -216 -43 -217 0
-51 -72 -52 -73 0
-51 -84 -52 -85 0
-51 -111 -52 -112 0
-51 -126 -52 -127 0
-51 -142 -52 -143 0
-51 -177 -52 -178 0
-51 -259 -52 -260 0
-61 -72 -62 -73 0
-61 -84 -62 -85 0
-61 -159 -62 -160 0
-61 -177 -62 -178 0
-61 -196 -62 -197 0
-61 -237 -62 -238 0
-72 -97 -73 -98 0
-72 -126 -73 -127 0
-72 -159 -73 -160 0
-72 -237 -73 -238 0
-72 -259 -73 -260 0
-84 -126 -85 -127 0
-84 -177 -85 -178 0
-84 -196 -85 -197 0
-84 -216 -85 -217 0
-97 -126 -98 -127 0
-97 -142 -98 -143 0
-97 -216 -98 -217 0
-97 -237 -98 -238 0
-111 -142 -112 -143 0
-111 -159 -112 -160 0
-111 -196 -112 -197 0
-111 -259 -112 -260 0
-126 -142 -127 -143 0
-126 -159 -127 -160 0
-126 -196 -127 -197 0
-126 -216 -127 -217 0
-142 -177 -143 -178 0
-142 -196 -143 -197 0
-142 -237 -143 -238 0
-159 -196 -160 -197 0
-159 -216 -160 -217 0
-159 -259 -160 -260 0
-177 -216 -178 -217 0
-177 -237 -178 -238 0
-177 -259 -178 -260 0
-196 -237 -197 -238 0
-216 -259 -217 -260 0
-237 -259 -238 -260 0
-27 -34 -84 -36 -86 0
-27 -34 -97 -36 -99 0
-27 -34 -111 -36 -113 0
-27 -34 -196 -36 -198 0
-27 -34 -216 -36 -218 0
-27 -34 -237 -36 -239 0
-27 -34 -259 -36 -261 0
-27 -42 -61 -44 -63 0
-27 -42 -97 -44 -99 0
-27 -42 -111 -44 -113 0
-27 -42 -142 -44 -144 0
-27 -42 -159 -44 -161 0
-27 -42 -177 -44 -179 0
-27 -42 -216 -44 -218 0
-27 -51 -72 -53 -74 0
-27 -51 -84 -53 -86 0
-27 -51 -111 -53 -113 0
-27 -51 -126 -53 -128 0
-27 -51 -142 -53 -144 0
-27 -51 -177 -53 -179 0
-27 -51 -259 -53 -261 0
-27 -61 -72 -63 -74 0
-27 -61 -84 -63 -86 0
-27 -61 -159 -63 -161 0
-27 -61 -177 -63 -179 0
-27 -61 -196 -63 -198 0
-27 -61 -237 -63 -239 0
-27 -72 -97 -74 -99 0
-27 -72 -126 -74 -128 0
-27 -72 -159 -74 -161 0
-27 -72 -237 -74 -239 0
-27 -72 -259 -74 -261 0
-27 -84 -126 -86 -128 0
-27 -84 -177 -86 -179 0
-27 -84 -196 -86 -198 0
-27 -84 -216 -86 -218 0
-27 -97 -126 -99 -128 0
-27 -97 -142 -99 -144 0
-27 -97 -216 -99 -218 0
-27 -97 -237 -99 -239 0
-27 -111 -142 -113 -144 0
-27 -111 -159 -113 -161 0
-27 -111 -196 -113 -198 0
-27 -111 -259 -113 -261 0
-27 -126 -142 -128 -144 0
-27 -126 -159 -128 -161 0
-27 -126 -196 -128 -198 0
-27 -126 -216 -128 -218 0
-27 -142 -177 -144 -179 0
-27 -142 -196 -144 -198 0
-27 -142 -237 -144 -239 0
-27 -159 -196 -161 -198 0
-27 -159 -216 -161 -218 0
-27 -159 -259 -161 -261 0
-27 -177 -216 -179 -218 0
-27 -177 -237 -179 -239 0
-27 -177 -259 -179 -261 0
-27 -196 -237 -198 -239 0
-27 -216 -259 -218 -261 0
-27 -237 -259 -239 -261 0
-34 -84 -196 0
-34 -84 -216 0
-34 -97 -216 0
-34 -97 -237 0
-34 -111 -196 0
-34 -111 -259 0
-34 -196 -237 0
-34 -216 -259 0
-34 -237 -259 0
-42 -61 -159 0
-42 -61 -177 0
-42 -97 -142 0
-42 -97 -216 0
-42 -111 -142 0
-42 -111 -159 0
-42 -142 -177 0
-42 -159 -216 0
-42 -177 -216 0
-51 -72 -126 0
-51 -72 -259 0
-51 -84 -126 0
-51 -84 -177 0
-51 -111 -142 0
-51 -111 -259 0
-51 -126 -142 0
-51 -142 -177 0
-51 -177 -259 0
-61 -72 -159 0
-61 -72 -237 0
-61 -84 -177 0
-61 -84 -196 0
-61 -159 -196 0
-61 -177 -237 0
-61 -196 -237 0
-72 -97 -126 0
-72 -97 -237 0
-72 -126 -159 0
-72 -159 -259 0
-72 -237 -259 0
-84 -126 -196 0
-84 -126 -216 0
-84 -177 -216 0
-97 -126 -142 0
-97 -126 -216 0
-97 -142 -237 0
-111 -142 -196 0
-111 -159 -196 0
-111 -159 -259 0
-126 -142 -196 0
-126 -159 -196 0
-126 -159 -216 0
-142 -177 -237 0
-142 -196 -237 0
-159 -216 -259 0
-177 -216 -259 0
-177 -237 -259 0
-35 -85 -197 0
-35 -85 -217 0
-35 -98 -217 0
-35 -98 -238 0
-35 -112 -197 0
-35 -112 -260 0
-35 -197 -238 0
-35 -217 -260 0
-35 -238 -260 0
-43 -62 -160 0
-43 -62 -178 0
-43 -98 -143 0
-43 -98 -217 0
-43 -112 -143 0
-43 -112 -160 0
-43 -143 -178 0
-43 -160 -217 0
-43 -178 -217 0
-52 -73 -127 0
-52 -73 -260 0
-52 -85 -127 0
-52 -85 -178 0
-52 -112 -143 0
-52 -112 -260 0
-52 -127 -143 0
-52 -143 -178 0
-52 -178 -260 0
-62 -73 -160 0
-62 -73 -238 0
-62 -85 -178 0
-62 -85 -197 0
-62 -160 -197 0
-62 -178 -238 0
-62 -197 -238 0
-73 -98 -127 0
-73 -98 -238 0
-73 -127 -160 0
-73 -160 -260 0
-73 -238 -260 0
-85 -127 -197 0
-85 -127 -217 0
-85 -178 -217 0
-98 -127 -143 0
-98 -127 -217 0
-98 -143 -238 0
-112 -143 -197 0
-112 -160 -197 0
-112 -160 -260 0
-127 -143 -197 0
-127 -160 -197 0
-127 -160 -217 0
-143 -178 -238 0
-143 -197 -238 0
-160 -217 -260 0
-178 -217 -260 0
-178 -238 -260 0
-36 -86 -198 0
-36 -86 -218 0
-36 -99 -218 0
-36 -99 -239 0
-36 -113 -198 0
-36 -113 -261 0
-36 -198 -239 0
-36 -218 -261 0
-36 -239 -261 0
-44 -63 -161 0
-44 -63 -179 0
-44 -99 -144 0
-44 -99 -218 0
-44 -113 -144 0
-44 -113 -161 0
-44 -144 -179 0
-44 -161 -218 0
-44 -179 -218 0
-53 -74 -128 0
-53 -74 -261 0
-53 -86 -128 0
-53 -86 -179 0
-53 -113 -144 0
-53 -113 -261 0
-53 -128 -144 0
-53 -144 -179 0
-53 -179 -261 0
-63 -74 -161 0
-63 -74 -239 0
-63 -86 -179 0
-63 -86 -198 0
-63 -161 -198 0
-63 -179 -239 0
-63 -198 -239 0
-74 -99 -128 0
-74 -99 -239 0
-74 -128 -161 0
-74 -161 -261 0
-74 -239 -261 0
-86 -128 -198 0
-86 -128 -218 0
-86 -179 -218 0
-99 -128 -144 0
-99 -128 -218 0
-99 -144 -239 0
-113 -144 -198 0
-113 -161 -198 0
-113 -161 -261 0
-128 -144 -198 0
-128 -161 -198 0
-128 -161 -218 0
-144 -179 -239 0
-144 -198 -239 0
-161 -218 -261 0
-179 -218 -261 0
-179 -239 -261 0
1 2 29 37 30 38 31 39 0
1 2 29 46 30 47 31 48 0
1 2 29 56 30 57 31 58 0
1 2 29 67 30 68 31 69 0
1 2 29 121 30 122 31 123 0
1 2 29 137 30 138 31 139 0
1 2 29 154 30 155 31 156 0
1 2 29 172 30 173 31 174 0
1 2 37 46 38 47 39 48 0
1 2 37 67 38 68 39 69 0
1 2 37 79 38 80 39 81 0
1 2 37 121 38 122 39 123 0
1 2 37 191 38 192 39 193 0
1 2 37 232 38 233 39 234 0
1 2 37 254 38 255 39 256 0
1 2 46 56 47 57 48 58 0
1 2 46 92 47 93 48 94 0
1 2 46 154 47 155 48 156 0
1 2 46 191 47 192 48 193 0
1 2 46 211 47 212 48 213 0
1 2 46 232 47 233 48 234 0
1 2 56 92 57 93 58 94 0
1 2 56 106 57 107 58 108 0
1 2 56 121 57 122 58 123 0
1 2 56 137 57 138 58 139 0
1 2 56 211 57 212 58 213 0
1 2 56 254 57 255 58 256 0
1 2 67 79 68 80 69 81 0
1 2 67 106 68 107 69 108 0
1 2 67 137 68 138 69 139 0
1 2 67 172 68 173 69 174 0
1 2 67 191 68 192 69 193 0
1 2 67 211 68 212 69 213 0
1 2 79 92 80 93 81 94 0
1 2 79 106 80 107 81 108 0
1 2 79 137 80 138 81 139 0
1 2 79 154 80 155 81 156 0
1 2 79 232 80 233 81 234 0
1 2 79 254 80 255 81 256 0
1 2 92 106 93 107 94 108 0
1 2 92 154 93 155 94 156 0
1 2 92 172 93 173 94 174 0
1 2 92 191 93 192 94 193 0
1 2 92 254 93 255 94 256 0
1 2 106 121 107 122 108 123 0
1 2 106 172 107 173 108 174 0
1 2 106 211 107 212 108 213 0
1 2 106 232 107 233 108 234 0
1 2 121 172 122 173 123 174 0
1 2 121 232 122 233 123 234 0
1 2 121 254 122 255 123 256 0
1 2 137 154 138 155 139 156 0
1 2 137 211 138 212 139 213 0
1 2 137 254 138 255 139 256 0
1 2 154 172 155 173 156 174 0
1 2 154 232 155 233 156 234 0
1 2 172 191 173 192 174 193 0
1 2 191 211 192 212 193 213 0
1 2 191 254 192 255 193 256 0
1 2 211 232 212 233 213 234 0
1 29 37 8 30 38 33 41 0
1 29 46 8 30 47 33 50 0
1 29 56 8 30 57 33 60 0
1 29 67 8 30 68 33 71 0
1 29 121 8 30 122 33 125 0
1 29 137 8 30 138 33 141 0
1 29 154 8 30 155 33 158 0
1 29 172 8 30 173 33 176 0
1 37 46 8 38 47 41 50 0
1 37 67 8 38 68 41 71 0
1 37 79 8 38 80 41 83 0
1 37 121 8 38 122 41 125 0
1 37 191 8 38 192 41 195 0
1 37 232 8 38 233 41 236 0
1 37 254 8 38 255 41 258 0
1 46 56 8 47 57 50 60 0
1 46 92 8 47 93 50 96 0
1 46 154 8 47 155 50 158 0
1 46 191 8 47 192 50 195 0
1 46 211 8 47 212 50 215 0
1 46 232 8 47 233 50 236 0
1 56 92 8 57 93 60 96 0
1 56 106 8 57 107 60 110 0
1 56 121 8 57 122 60 125 0
1 56 137 8 57 138 60 141 0
1 56 211 8 57 212 60 215 0
1 56 254 8 57 255 60 258 0
1 67 79 8 68 80 71 83 0
1 67 106 8 68 107 71 110 0
1 67 137 8 68 138 71 141 0
1 67 172 8 68 173 71 176 0
1 67 191 8 68 192 71 195 0
1 67 211 8 68 212 71 215 0
1 79 92 8 80 93 83 96 0
1 79 106 8 80 107 83 110 0
1 79 137 8 80 138 83 141 0
1 79 154 8 80 155 83 158 0
1 79 232 8 80 233 83 236 0
1 79 254 8 80 255 83 258 0
1 92 106 8 93 107 96 110 0
1 92 154 8 93 155 96 158 0
1 92 172 8 93 173 96 176 0
1 92 191 8 93 192 96 195 0
1 92 254 8 93 255 96 258 0
1 106 121 8 107 122 110 125 0
1 106 172 8 107 173 110 176 0
1 106 211 8 107 212 110 215 0
1 106 232 8 107 233 110 236 0
1 121 172 8 122 173 125 176 0
1 121 232 8 122 233 125 236 0
1 121 254 8 122 255 125 258 0
1 137 154 8 138 155 141 158 0
1 137 211 8 138 212 141 215 0
1 137 254 8 138 255 141 258 0
1 154 172 8 155 173 158 176 0
1 154 232 8 155 233 158 236 0
1 172 191 8 173 192 176 195 0
1 191 211 8 192 212 195 215 0
1 191 254 8 192 255 195 258 0
1 211 232 8 212 233 215 236 0
1 29 37 46 30 38 47 0
1 29 37 67 30 38 68 0
1 29 37 121 30 38 122 0
1 29 46 56 30 47 57 0
1 29 46 154 30 47 155 0
1 29 56 121 30 57 122 0
1 29 56 137 30 57 138 0
1 29 67 137 30 68 138 0
1 29 67 172 30 68 173 0
1 29 121 172 30 122 173 0
1 29 137 154 30 138 155 0
1 29 154 172 30 155 173 0
1 37 46 191 38 47 192 0
1 37 46 232 38 47 233 0
1 37 67 79 38 68 80 0
1 37 67 191 38 68 192 0
1 37 79 232 38 80 233 0
1 37 79 254 38 80 255 0
1 37 121 232 38 122 233 0
1 37 121 254 38 122 255 0
1 37 191 254 38 192 255 0
1 46 56 92 47 57 93 0
1 46 56 211 47 57 212 0
1 46 92 154 47 93 155 0
1 46 92 191 47 93 192 0
1 46 154 232 47 155 233 0
1 46 191 211 47 192 212 0
1 46 211 232 47 212 233 0
1 56 92 106 57 93 107 0
1 56 92 254 57 93 255 0
1 56 106 121 57 107 122 0
1 56 106 211 57 107 212 0
1 56 121 254 57 122 255 0
1 56 137 211 57 138 212 0
1 56 137 254 57 138 255 0
1 67 79 106 68 80 107 0
1 67 79 137 68 80 138 0
1 67 106 172 68 107 173 0
1 67 106 211 68 107 212 0
1 67 137 211 68 138 212 0
1 67 172 191 68 173 192 0
1 67 191 211 68 192 212 0
1 79 92 106 80 93 107 0
1 79 92 154 80 93 155 0
1 79 92 254 80 93 255 0
1 79 106 232 80 107 233 0
1 79 137 154 80 138 155 0
1 79 137 254 80 138 255 0
1 79 154 232 80 155 233 0
1 92 106 172 93 107 173 0
1 92 154 172 93 155 173 0
1 92 172 191 93 173 192 0
1 92 191 254 93 192 255 0
1 106 121 172 107 122 173 0
1 106 121 232 107 122 233 0
1 106 211 232 107 212 233 0
2 29 37 46 31 39 48 0
2 29 37 67 31 39 69 0
2 29 37 121 31 39 123 0
2 29 46 56 31 48 58 0
2 29 46 154 31 48 156 0
2 29 56 121 31 58 123 0
2 29 56 137 31 58 139 0
2 29 67 137 31 69 139 0
2 29 67 172 31 69 174 0
2 29 121 172 31 123 174 0
2 29 137 154 31 139 156 0
2 29 154 172 31 156 174 0
2 37 46 191 39 48 193 0
2 37 46 232 39 48 234 0
2 37 67 79 39 69 81 0
2 37 67 191 39 69 193 0
2 37 79 232 39 81 234 0
2 37 79 254 39 81 256 0
2 37 121 232 39 123 234 0
2 37 121 254 39 123 256 0
2 37 191 254 39 193 256 0
2 46 56 92 48 58 94 0
2 46 56 211 48 58 213 0
2 46 92 154 48 94 156 0
2 46 92 191 48 94 193 0
2 46 154 232 48 156 234 0
2 46 191 211 48 193 213 0
2 46 211 232 48 213 234 0
2 56 92 106 58 94 108 0
2 56 92 254 58 94 256 0
2 56 106 121 58 108 123 0
2 56 106 211 58 108 213 0
2 56 121 254 58 123 256 0
2 56 137 211 58 139 213 0
2 56 137 254 58 139 256 0
2 67 79 106 69 81 108 0
2 67 79 137 69 81 139 0
2 67 106 172 69 108 174 0
2 67 106 211 69 108 213 0
2 67 137 211 69 139 213 0
2 67 172 191 69 174 193 0
2 67 191 211 69 193 213 0
2 79 92 106 81 94 108 0
2 79 92 154 81 94 156 0
2 79 92 254 81 94 256 0
2 79 106 232 81 108 234 0
2 79 137 154 81 139 156 0
2 79 137 254 81 139 256 0
2 79 154 232 81 156 234 0
2 92 106 172 94 108 174 0
2 92 154 172 94 156 174 0
2 92 172 191 94 174 193 0
2 92 191 254 94 193 256 0
2 106 121 172 108 123 174 0
2 106 121 232 108 123 234 0
2 106 211 232 108 213 234 0
29 32 33 34 0
37 40 41 42 0
46 49 50 51 0
56 59 60 61 0
67 70 71 72 0
79 82 83 84 0
92 95 96 97 0
106 109 110 111 0
121 124 125 126 0
137 140 141 142 0
154 157 158 159 0
172 175 176 177 0
191 194 195 196 0
211 214 215 216 0
232 235 236 237 0
254 257 258 259 0
29 37 32 40 33 41 0
29 46 32 49 33 50 0
29 56 32 59 33 60 0
29 67 32 70 33 71 0
29 121 32 124 33 125 0
29 137 32 140 33 141 0
29 154 32 157 33 158 0
29 172 32 175 33 176 0
37 46 40 49 41 50 0
37 67 40 70 41 71 0
37 79 40 82 41 83 0
37 121 40 124 41 125 0
37 191 40 194 41 195 0
37 232 40 235 41 236 0
37 254 40 257 41 258 0
46 56 49 59 50 60 0
46 92 49 95 50 96 0
46 154 49 157 50 158 0
46 191 49 194 50 195 0
46 211 49 214 50 215 0
46 232 49 235 50 236 0
56 92 59 95 60 96 0
56 106 59 109 60 110 0
56 121 59 124 60 125 0
56 137 59 140 60 141 0
56 211 59 214 60 215 0
56 254 59 257 60 258 0
67 79 70 82 71 83 0
67 106 70 109 71 110 0
67 137 70 140 71 141 0
67 172 70 175 71 176 0
67 191 70 194 71 195 0
67 211 70 214 71 215 0
79 92 82 95 83 96 0
79 106 82 109 83 110 0
79 137 82 140 83 141 0
79 154 82 157 83 158 0
79 232 82 235 83 236 0
79 254 82 257 83 258 0
92 106 95 109 96 110 0
92 154 95 157 96 158 0
92 172 95 175 96 176 0
92 191 95 194 96 195 0
92 254 95 257 96 258 0
106 121 109 124 110 125 0
106 172 109 175 110 176 0
106 211 109 214 110 215 0
106 232 109 235 110 236 0
121 172 124 175 125 176 0
121 232 124 235 125 236 0
121 254 124 257 125 258 0
137 154 140 157 141 158 0
137 211 140 214 141 215 0
137 254 140 257 141 258 0
154 172 157 175 158 176 0
154 232 157 235 158 236 0
172 191 175 194 176 195 0
191 211 194 214 195 215 0
191 254 194 257 195 258 0
211 232 214 235 215 236 0
29 37 32 40 34 42 0
29 46 32 49 34 51 0
29 56 32 59 34 61 0
29 67 32 70 34 72 0
29 121 32 124 34 126 0
29 137 32 140 34 142 0
29 154 32 157 34 159 0
29 172 32 175 34 177 0
37 46 40 49 42 51 0
37 67 40 70 42 72 0
37 79 40 82 42 84 0
37 121 40 124 42 126 0
37 191 40 194 42 196 0
37 232 40 235 42 237 0
37 254 40 257 42 259 0
46 56 49 59 51 61 0
46 92 49 95 51 97 0
46 154 49 157 51 159 0
46 191 49 194 51 196 0
46 211 49 214 51 216 0
46 232 49 235 51 237 0
56 92 59 95 61 97 0
56 106 59 109 61 111 0
56 121 59 124 61 126 0
56 137 59 140 61 142 0
56 211 59 214 61 216 0
56 254 59 257 61 259 0
67 79 70 82 72 84 0
67 106 70 109 72 111 0
67 137 70 140 72 142 0
67 172 70 175 72 177 0
67 191 70 194 72 196 0
67 211 70 214 72 216 0
79 92 82 95 84 97 0
79 106 82 109 84 111 0
79 137 82 140 84 142 0
79 154 82 157 84 159 0
79 232 82 235 84 237 0
79 254 82 257 84 259 0
92 106 95 109 97 111 0
92 154 95 157 97 159 0
92 172 95 175 97 177 0
92 191 95 194 97 196 0
92 254 95 257 97 259 0
106 121 109 124 111 126 0
106 172 109 175 111 177 0
106 211 109 214 111 216 0
106 232 109 235 111 237 0
121 172 124 175 126 177 0
121 232 124 235 126 237 0
121 254 124 257 126 259 0
137 154 140 157 142 159 0
137 211 140 214 142 216 0
137 254 140 257 142 259 0
154 172 157 175 159 177 0
154 232 157 235 159 237 0
172 191 175 194 177 196 0
191 211 194 214 196 216 0
191 254 194 257 196 259 0
211 232 214 235 216 237 0
29 37 46 32 40 49 0
29 37 67 32 40 70 0
29 37 121 32 40 124 0
29 46 56 32 49 59 0
29 46 154 32 49 157 0
29 56 121 32 59 124 0
29 56 137 32 59 140 0
29 67 137 32 70 140 0
29 67 172 32 70 175 0
29 121 172 32 124 175 0
29 137 154 32 140 157 0
29 154 172 32 157 175 0
37 46 191 40 49 194 0
37 46 232 40 49 235 0
37 67 79 40 70 82 0
37 67 191 40 70 194 0
37 79 232 40 82 235 0
37 79 254 40 82 257 0
37 121 232 40 124 235 0
37 121 254 40 124 257 0
37 191 254 40 194 257 0
46 56 92 49 59 95 0
46 56 211 49 59 214 0
46 92 154 49 95 157 0
46 92 191 49 95 194 0
46 154 232 49 157 235 0
46 191 211 49 194 214 0
46 211 232 49 214 235 0
56 92 106 59 95 109 0
56 92 254 59 95 257 0
56 106 121 59 109 124 0
56 106 211 59 109 214 0
56 121 254 59 124 257 0
56 137 211 59 140 214 0
56 137 254 59 140 257 0
67 79 106 70 82 109 0
67 79 137 70 82 140 0
67 106 172 70 109 175 0
67 106 211 70 109 214 0
67 137 211 70 140 214 0
67 172 191 70 175 194 0
67 191 211 70 194 214 0
79 92 106 82 95 109 0
79 92 154 82 95 157 0
79 92 254 82 95 257 0
79 106 232 82 109 235 0
79 137 154 82 140 157 0
79 137 254 82 140 257 0
79 154 232 82 157 235 0
92 106 172 95 109 175 0
92 154 172 95 157 175 0
92 172 191 95 175 194 0
92 191 254 95 194 257 0
106 121 172 109 124 175 0
106 121 232 109 124 235 0
106 211 232 109 214 235 0
29 37 33 41 34 42 0
29 46 33 50 34 51 0
29 56 33 60 34 61 0
29 67 33 71 34 72 0
29 121 33 125 34 126 0
29 137 33 141 34 142 0
29 154 33 158 34 159 0
29 172 33 176 34 177 0
37 46 41 50 42 51 0
37 67 41 71 42 72 0
37 79 41 83 42 84 0
37 121 41 125 42 126 0
37 191 41 195 42 196 0
37 232 41 236 42 237 0
37 254 41 258 42 259 0
46 56 50 60 51 61 0
46 92 50 96 51 97 0
46 154 50 158 51 159 0
46 191 50 195 51 196 0
46 211 50 215 51 216 0
46 232 50 236 51 237 0
56 92 60 96 61 97 0
56 106 60 110 61 111 0
56 121 60 125 61 126 0
56 137 60 141 61 142 0
56 211 60 215 61 216 0
56 254 60 258 61 259 0
67 79 71 83 72 84 0
67 106 71 110 72 111 0
67 137 71 141 72 142 0
67 172 71 176 72 177 0
67 191 71 195 72 196 0
67 211 71 215 72 216 0
79 92 83 96 84 97 0
79 106 83 110 84 111 0
79 137 83 141 84 142 0
79 154 83 158 84 159 0
79 232 83 236 84 237 0
79 254 83 258 84 259 0
92 106 96 110 97 111 0
92 154 96 158 97 159 0
92 172 96 176 97 177 0
92 191 96 195 97 196 0
92 254 96 258 97 259 0
106 121 110 125 111 126 0
106 172 110 176 111 177 0
106 211 110 215 111 216 0
106 232 110 236 111 237 0
121 172 125 176 126 177 0
121 232 125 236 126 237 0
121 254 125 258 126 259 0
137 154 141 158 142 159 0
137 211 141 215 142 216 0
137 254 141 258 142 259 0
154 172 158 176 159 177 0
154 232 158 236 159 237 0
172 191 176 195 177 196 0
191 211 195 215 196 216 0
191 254 195 258 196 259 0
211 232 215 236 216 237 0
29 37 46 33 41 50 0
29 37 67 33 41 71 0
29 37 121 33 41 125 0
29 46 56 33 50 60 0
29 46 154 33 50 158 0
29 56 121 33 60 125 0
29 56 137 33 60 141 0
29 67 137 33 71 141 0
29 67 172 33 71 176 0
29 121 172 33 125 176 0
29 137 154 33 141 158 0
29 154 172 33 158 176 0
37 46 191 41 50 195 0
37 46 232 41 50 236 0
37 67 79 41 71 83 0
37 67 191 41 71 195 0
37 79 232 41 83 236 0
37 79 254 41 83 258 0
37 121 232 41 125 236 0
37 121 254 41 125 258 0
37 191 254 41 195 258 0
46 56 92 50 60 96 0
46 56 211 50 60 215 0
46 92 154 50 96 158 0
46 92 191 50 96 195 0
46 154 232 50 158 236 0
46 191 211 50 195 215 0
46 211 232 50 215 236 0
56 92 106 60 96 110 0
56 92 254 60 96 258 0
56 106 121 60 110 125 0
56 106 211 60 110 215 0
56 121 254 60 125 258 0
56 137 211 60 141 215 0
56 137 254 60 141 258 0
67 79 106 71 83 110 0
67 79 137 71 83 141 0
67 106 172 71 110 176 0
67 106 211 71 110 215 0
67 137 211 71 141 215 0
67 172 191 71 176 195 0
67 191 211 71 195 215 0
79 92 106 83 96 110 0
79 92 154 83 96 158 0
79 92 254 83 96 258 0
79 106 232 83 110 236 0
79 137 154 83 141 158 0
79 137 254 83 141 258 0
79 154 232 83 158 236 0
92 106 172 96 110 176 0
92 154 172 96 158 176 0
92 172 191 96 176 195 0
92 191 254 96 195 258 0
106 121 172 110 125 176 0
106 121 232 110 125 236 0
106 211 232 110 215 236 0
29 37 46 34 42 51 0
29 37 67 34 42 72 0
29 37 121 34 42 126 0
29 46 56 34 51 61 0
29 46 154 34 51 159 0
29 56 121 34 61 126 0
29 56 137 34 61 142 0
29 67 137 34 72 142 0
29 67 172 34 72 177 0
29 121 172 34 126 177 0
29 137 154 34 142 159 0
29 154 172 34 159 177 0
37 46 191 42 51 196 0
37 46 232 42 51 237 0
37 67 79 42 72 84 0
37 67 191 42 72 196 0
37 79 232 42 84 237 0
37 79 254 42 84 259 0
37 121 232 42 126 237 0
37 121 254 42 126 259 0
37 191 254 42 196 259 0
46 56 92 51 61 97 0
46 56 211 51 61 216 0
46 92 154 51 97 159 0
46 92 191 51 97 196 0
46 154 232 51 159 237 0
46 191 211 51 196 216 0
46 211 232 51 216 237 0
56 92 106 61 97 111 0
56 92 254 61 97 259 0
56 106 121 61 111 126 0
56 106 211 61 111 216 0
56 121 254 61 126 259 0
56 137 211 61 142 216 0
56 137 254 61 142 259 0
67 79 106 72 84 111 0
67 79 137 72 84 142 0
67 106 172 72 111 177 0
67 106 211 72 111 216 0
67 137 211 72 142 216 0
67 172 191 72 177 196 0
67 191 211 72 196 216 0
79 92 106 84 97 111 0
79 92 154 84 97 159 0
79 92 254 84 97 259 0
79 106 232 84 111 237 0
79 137 154 84 142 159 0
79 137 254 84 142 259 0
79 154 232 84 159 237 0
92 106 172 97 111 177 0
92 154 172 97 159 177 0
92 172 191 97 177 196 0
92 191 254 97 196 259 0
106 121 172 111 126 177 0
106 121 232 111 126 237 0
106 211 232 111 216 237 0
30 31 35 36 0
38 39 43 44 0
47 48 52 53 0
57 58 62 63 0
68 69 73 74 0
80 81 85 86 0
93 94 98 99 0
107 108 112 113 0
122 123 127 128 0
138 139 143 144 0
155 156 160 161 0
173 174 178 179 0
192 193 197 198 0
212 213 217 218 0
233 234 238 239 0
255 256 260 261 0
30 38 31 39 35 43 0
30 47 31 48 35 52 0
30 57 31 58 35 62 0
30 68 31 69 35 73 0
30 122 31 123 35 127 0
30 138 31 139 35 143 0
30 155 31 156 35 160 0
30 173 31 174 35 178 0
38 47 39 48 43 52 0
38 68 39 69 43 73 0
38 80 39 81 43 85 0
38 122 39 123 43 127 0
38 192 39 193 43 197 0
38 233 39 234 43 238 0
38 255 39 256 43 260 0
47 57 48 58 52 62 0
47 93 48 94 52 98 0
47 155 48 156 52 160 0
47 192 48 193 52 197 0
47 212 48 213 52 217 0
47 233 48 234 52 238 0
57 93 58 94 62 98 0
57 107 58 108 62 112 0
57 122 58 123 62 127 0
57 138 58 139 62 143 0
57 212 58 213 62 217 0
57 255 58 256 62 260 0
68 80 69 81 73 85 0
68 107 69 108 73 112 0
68 138 69 139 73 143 0
68 173 69 174 73 178 0
68 192 69 193 73 197 0
68 212 69 213 73 217 0
80 93 81 94 85 98 0
80 107 81 108 85 112 0
80 138 81 139 85 143 0
80 155 81 156 85 160 0
80 233 81 234 85 238 0
80 255 81 256 85 260 0
93 107 94 108 98 112 0
93 155 94 156 98 160 0
93 173 94 174 98 178 0
93 192 94 193 98 197 0
93 255 94 256 98 260 0
107 122 108 123 112 127 0
107 173 108 174 112 178 0
107 212 108 213 112 217 0
107 233 108 234 112 238 0
122 173 123 174 127 178 0
122 233 123 234 127 238 0
122 255 123 256 127 260 0
138 155 139 156 143 160 0
138 212 139 213 143 217 0
138 255 139 256 143 260 0
155 173 156 174 160 178 0
155 233 156 234 160 238 0
173 192 174 193 178 197 0
192 212 193 213 197 217 0
192 255 193 256 197 260 0
212 233 213 234 217 238 0
30 38 31 39 36 44 0
30 47 31 48 36 53 0
30 57 31 58 36 63 0
30 68 31 69 36 74 0
30 122 31 123 36 128 0
30 138 31 139 36 144 0
30 155 31 156 36 161 0
30 173 31 174 36 179 0
38 47 39 48 44 53 0
38 68 39 69 44 74 0
38 80 39 81 44 86 0
38 122 39 123 44 128 0
38 192 39 193 44 198 0
38 233 39 234 44 239 0
38 255 39 256 44 261 0
47 57 48 58 53 63 0
47 93 48 94 53 99 0
47 155 48 156 53 161 0
47 192 48 193 53 198 0
47 212 48 213 53 218 0
47 233 48 234 53 239 0
57 93 58 94 63 99 0
57 107 58 108 63 113 0
57 122 58 123 63 128 0
57 138 58 139 63 144 0
57 212 58 213 63 218 0
57 255 58 256 63 261 0
68 80 69 81 74 86 0
68 107 69 108 74 113 0
68 138 69 139 74 144 0
68 173 69 174 74 179 0
68 192 69 193 74 198 0
68 212 69 213 74 218 0
80 93 81 94 86 99 0
80 107 81 108 86 113 0
80 138 81 139 86 144 0
80 155 81 156 86 161 0
80 233 81 234 86 239 0
80 255 81 256 86 261 0
93 107 94 108 99 113 0
93 155 94 156 99 161 0
93 173 94 174 99 179 0
93 192 94 193 99 198 0
93 255 94 256 99 261 0
107 122 108 123 113 128 0
107 173 108 174 113 179 0
107 212 108 213 113 218 0
107 233 108 234 113 239 0
122 173 123 174 128 179 0
122 233 123 234 128 239 0
122 255 123 256 128 261 0
138 155 139 156 144 161 0
138 212 139 213 144 218 0
138 255 139 256 144 261 0
155 173 156 174 161 179 0
155 233 156 234 161 239 0
173 192 174 193 179 198 0
192 212 193 213 198 218 0
192 255 193 256 198 261 0
212 233 213 234 218 239 0
30 38 47 31 39 48 0
30 38 68 31 39 69 0
30 38 122 31 39 123 0
30 47 57 31 48 58 0
30 47 155 31 48 156 0
30 57 122 31 58 123 0
30 57 138 31 58 139 0
30 68 138 31 69 139 0
30 68 173 31 69 174 0
30 122 173 31 123 174 0
30 138 155 31 139 156 0
30 155 173 31 156 174 0
38 47 192 39 48 193 0
38 47 233 39 48 234 0
38 68 80 39 69 81 0
38 68 192 39 69 193 0
38 80 233 39 81 234 0
38 80 255 39 81 256 0
38 122 233 39 123 234 0
38 122 255 39 123 256 0
38 192 255 39 193 256 0
47 57 93 48 58 94 0
47 57 212 48 58 213 0
47 93 155 48 94 156 0
47 93 192 48 94 193 0
47 155 233 48 156 234 0
47 192 212 48 193 213 0
47 212 233 48 213 234 0
57 93 107 58 94 108 0
57 93 255 58 94 256 0
57 107 122 58 108 123 0
57 107 212 58 108 213 0
57 122 255 58 123 256 0
57 138 212 58 139 213 0
57 138 255 58 139 256 0
68 80 107 69 81 108 0
68 80 138 69 81 139 0
68 107 173 69 108 174 0
68 107 212 69 108 213 0
68 138 212 69 139 213 0
68 173 192 69 174 193 0
68 192 212 69 193 213 0
80 93 107 81 94 108 0
80 93 155 81 94 156 0
80 93 255 81 94 256 0
80 107 233 81 108 234 0
80 138 155 81 139 156 0
80 138 255 81 139 256 0
80 155 233 81 156 234 0
93 107 173 94 108 174 0
93 155 173 94 156 174 0
93 173 192 94 174 193 0
93 192 255 94 193 256 0
107 122 173 108 123 174 0
107 122 233 108 123 234 0
107 212 233 108 213 234 0
8 30 38 47 33 41 50 0
8 30 38 68 33 41 71 0
8 30 38 122 33 41 125 0
8 30 47 57 33 50 60 0
8 30 47 155 33 50 158 0
8 30 57 122 33 60 125 0
8 30 57 138 33 60 141 0
8 30 68 138 33 71 141 0
8 30 68 173 33 71 176 0
8 30 122 173 33 125 176 0
8 30 138 155 33 141 158 0
8 30 155 173 33 158 176 0
8 38 47 192 41 50 195 0
8 38 47 233 41 50 236 0
8 38 68 80 41 71 83 0
8 38 68 192 41 71 195 0
8 38 80 233 41 83 236 0
8 38 80 255 41 83 258 0
8 38 122 233 41 125 236 0
8 38 122 255 41 125 258 0
8 38 192 255 41 195 258 0
8 47 57 93 50 60 96 0
8 47 57 212 50 60 215 0
8 47 93 155 50 96 158 0
8 47 93 192 50 96 195 0
8 47 155 233 50 158 236 0
8 47 192 212 50 195 215 0
8 47 212 233 50 215 236 0
8 57 93 107 60 96 110 0
8 57 93 255 60 96 258 0
8 57 107 122 60 110 125 0
8 57 107 212 60 110 215 0
8 57 122 255 60 125 258 0
8 57 138 212 60 141 215 0
8 57 138 255 60 141 258 0
8 68 80 107 71 83 110 0
8 68 80 138 71 83 141 0
8 68 107 173 71 110 176 0
8 68 107 212 71 110 215 0
8 68 138 212 71 141 215 0
8 68 173 192 71 176 195 0
8 68 192 212 71 195 215 0
8 80 93 107 83 96 110 0
8 80 93 155 83 96 158 0
8 80 93 255 83 96 258 0
8 80 107 233 83 110 236 0
8 80 138 155 83 141 158 0
8 80 138 255 83 141 258 0
8 80 155 233 83 158 236 0
8 93 107 173 96 110 176 0
8 93 155 173 96 158 176 0
8 93 173 192 96 176 195 0
8 93 192 255 96 195 258 0
8 107 122 173 110 125 176 0
8 107 122 233 110 125 236 0
8 107 212 233 110 215 236 0
30 38 35 43 36 44 0
30 47 35 52 36 53 0
30 57 35 62 36 63 0
30 68 35 73 36 74 0
30 122 35 127 36 128 0
30 138 35 143 36 144 0
30 155 35 160 36 161 0
30 173 35 178 36 179 0
38 47 43 52 44 53 0
38 68 43 73 44 74 0
38 80 43 85 44 86 0
38 122 43 127 44 128 0
38 192 43 197 44 198 0
38 233 43 238 44 239 0
38 255 43 260 44 261 0
47 57 52 62 53 63 0
47 93 52 98 53 99 0
47 155 52 160 53 161 0
47 192 52 197 53 198 0
47 212 52 217 53 218 0
47 233 52 238 53 239 0
57 93 62 98 63 99 0
57 107 62 112 63 113 0
57 122 62 127 63 128 0
57 138 62 143 63 144 0
57 212 62 217 63 218 0
57 255 62 260 63 261 0
68 80 73 85 74 86 0
68 107 73 112 74 113 0
68 138 73 143 74 144 0
68 173 73 178 74 179 0
68 192 73 197 74 198 0
68 212 73 217 74 218 0
80 93 85 98 86 99 0
80 107 85 112 86 113 0
80 138 85 143 86 144 0
80 155 85 160 86 161 0
80 233 85 238 86 239 0
80 255 85 260 86 261 0
93 107 98 112 99 113 0
93 155 98 160 99 161 0
93 173 98 178 99 179 0
93 192 98 197 99 198 0
93 255 98 260 99 261 0
107 122 112 127 113 128 0
107 173 112 178 113 179 0
107 212 112 217 113 218 0
107 233 112 238 113 239 0
122 173 127 178 128 179 0
122 233 127 238 128 239 0
122 255 127 260 128 261 0
138 155 143 160 144 161 0
138 212 143 217 144 218 0
138 255 143 260 144 261 0
155 173 160 178 161 179 0
155 233 160 238 161 239 0
173 192 178 197 179 198 0
192 212 197 217 198 218 0
192 255 197 260 198 261 0
212 233 217 238 218 239 0
30 38 47 35 43 52 0
30 38 68 35 43 73 0
30 38 122 35 43 127 0
30 47 57 35 52 62 0
30 47 155 35 52 160 0
30 57 122 35 62 127 0
30 57 138 35 62 143 0
30 68 138 35 73 143 0
30 68 173 35 73 178 0
30 122 173 35 127 178 0
30 138 155 35 143 160 0
30 155 173 35 160 178 0
38 47 192 43 52 197 0
38 47 233 43 52 238 0
38 68 80 43 73 85 0
38 68 192 43 73 197 0
38 80 233 43 85 238 0
38 80 255 43 85 260 0
38 122 233 43 127 238 0
38 122 255 43 127 260 0
38 192 255 43 197 260 0
47 57 93 52 62 98 0
47 57 212 52 62 217 0
47 93 155 52 98 160 0
47 93 192 52 98 197 0
47 155 233 52 160 238 0
47 192 212 52 197 217 0
47 212 233 52 217 238 0
57 93 107 62 98 112 0
57 93 255 62 98 260 0
57 107 122 62 112 127 0
57 107 212 62 112 217 0
57 122 255 62 127 260 0
57 138 212 62 143 217 0
57 138 255 62 143 260 0
68 80 107 73 85 112 0
68 80 138 73 85 143 0
68 107 173 73 112 178 0
68 107 212 73 112 217 0
68 138 212 73 143 217 0
68 173 192 73 178 197 0
68 192 212 73 197 217 0
80 93 107 85 98 112 0
80 93 155 85 98 160 0
80 93 255 85 98 260 0
80 107 233 85 112 238 0
80 138 155 85 143 160 0
80 138 255 85 143 260 0
80 155 233 85 160 238 0
93 107 173 98 112 178 0
93 155 173 98 160 178 0
93 173 192 98 178 197 0
93 192 255 98 197 260 0
107 122 173 112 127 178 0
107 122 233 112 127 238 0
107 212 233 112 217 238 0
30 38 47 36 44 53 0
30 38 68 36 44 74 0
30 38 122 36 44 128 0
30 47 57 36 53 63 0
30 47 155 36 53 161 0
30 57 122 36 63 128 0
30 57 138 36 63 144 0
30 68 138 36 74 144 0
30 68 173 36 74 179 0
30 122 173 36 128 179 0
30 138 155 36 144 161 0
30 155 173 36 161 179 0
38 47 192 44 53 198 0
38 47 233 44 53 239 0
38 68 80 44 74 86 0
38 68 192 44 74 198 0
38 80 233 44 86 239 0
38 80 255 44 86 261 0
38 122 233 44 128 239 0
38 122 255 44 128 261 0
38 192 255 44 198 261 0
47 57 93 53 63 99 0
47 57 212 53 63 218 0
47 93 155 53 99 161 0
47 93 192 53 99 198 0
47 155 233 53 161 239 0
47 192 212 53 198 218 0
47 212 233 53 218 239 0
57 93 107 63 99 113 0
57 93 255 63 99 261 0
57 107 122 63 113 128 0
57 107 212 63 113 218 0
57 122 255 63 128 261 0
57 138 212 63 144 218 0
57 138 255 63 144 261 0
68 80 107 74 86 113 0
68 80 138 74 86 144 0
68 107 173 74 113 179 0
68 107 212 74 113 218 0
68 138 212 74 144 218 0
68 173 192 74 179 198 0
68 192 212 74 198 218 0
80 93 107 86 99 113 0
80 93 155 86 99 161 0
80 93 255 86 99 261 0
80 107 233 86 113 239 0
80 138 155 86 144 161 0
80 138 255 86 144 261 0
80 155 233 86 161 239 0
93 107 173 99 113 179 0
93 155 173 99 161 179 0
93 173 192 99 179 198 0
93 192 255 99 198 261 0
107 122 173 113 128 179 0
107 122 233 113 128 239 0
107 212 233 113 218 239 0
31 39 35 43 36 44 0
31 48 35 52 36 53 0
31 58 35 62 36 63 0
31 69 35 73 36 74 0
31 123 35 127 36 128 0
31 139 35 143 36 144 0
31 156 35 160 36 161 0
31 174 35 178 36 179 0
39 48 43 52 44 53 0
39 69 43 73 44 74 0
39 81 43 85 44 86 0
39 123 43 127 44 128 0
39 193 43 197 44 198 0
39 234 43 238 44 239 0
39 256 43 260 44 261 0
48 58 52 62 53 63 0
48 94 52 98 53 99 0
48 156 52 160 53 161 0
48 193 52 197 53 198 0
48 213 52 217 53 218 0
48 234 52 238 53 239 0
58 94 62 98 63 99 0
58 108 62 112 63 113 0
58 123 62 127 63 128 0
58 139 62 143 63 144 0
58 213 62 217 63 218 0
58 256 62 260 63 261 0
69 81 73 85 74 86 0
69 108 73 112 74 113 0
69 139 73 143 74 144 0
69 174 73 178 74 179 0
69 193 73 197 74 198 0
69 213 73 217 74 218 0
81 94 85 98 86 99 0
81 108 85 112 86 113 0
81 139 85 143 86 144 0
81 156 85 160 86 161 0
81 234 85 238 86 239 0
81 256 85 260 86 261 0
94 108 98 112 99 113 0
94 156 98 160 99 161 0
94 174 98 178 99 179 0
94 193 98 197 99 198 0
94 256 98 260 99 261 0
108 123 112 127 113 128 0
108 174 112 178 113 179 0
108 213 112 217 113 218 0
108 234 112 238 113 239 0
123 174 127 178 128 179 0
123 234 127 238 128 239 0
123 256 127 260 128 261 0
139 156 143 160 144 161 0
139 213 143 217 144 218 0
139 256 143 260 144 261 0
156 174 160 178 161 179 0
156 234 160 238 161 239 0
174 193 178 197 179 198 0
193 213 197 217 198 218 0
193 256 197 260 198 261 0
213 234 217 238 218 239 0
31 39 48 35 43 52 0
31 39 69 35 43 73 0
31 39 123 35 43 127 0
31 48 58 35 52 62 0
31 48 156 35 52 160 0
31 58 123 35 62 127 0
31 58 139 35 62 143 0
31 69 139 35 73 143 0
31 69 174 35 73 178 0
31 123 174 35 127 178 0
31 139 156 35 143 160 0
31 156 174 35 160 178 0
39 48 193 43 52 197 0
39 48 234 43 52 238 0
39 69 81 43 73 85 0
39 69 193 43 73 197 0
39 81 234 43 85 238 0
39 81 256 43 85 260 0
39 123 234 43 127 238 0
39 123 256 43 127 260 0
39 193 256 43 197 260 0
48 58 94 52 62 98 0
48 58 213 52 62 217 0
48 94 156 52 98 160 0
48 94 193 52 98 197 0
48 156 234 52 160 238 0
48 193 213 52 197 217 0
48 213 234 52 217 238 0
58 94 108 62 98 112 0
58 94 256 62 98 260 0
58 108 123 62 112 127 0
58 108 213 62 112 217 0
58 123 256 62 127 260 0
58 139 213 62 143 217 0
58 139 256 62 143 260 0
69 81 108 73 85 112 0
69 81 139 73 85 143 0
69 108 174 73 112 178 0
69 108 213 73 112 217 0
69 139 213 73 143 217 0
69 174 193 73 178 197 0
69 193 213 73 197 217 0
81 94 108 85 98 112 0
81 94 156 85 98 160 0
81 94 256 85 98 260 0
81 108 234 85 112 238 0
81 139 156 85 143 160 0
81 139 256 85 143 260 0
81 156 234 85 160 238 0
94 108 174 98 112 178 0
94 156 174 98 160 178 0
94 174 193 98 178 197 0
94 193 256 98 197 260 0
108 123 174 112 127 178 0
108 123 234 112 127 238 0
108 213 234 112 217 238 0
31 39 48 36 44 53 0
31 39 69 36 44 74 0
31 39 123 36 44 128 0
31 48 58 36 53 63 0
31 48 156 36 53 161 0
31 58 123 36 63 128 0
31 58 139 36 63 144 0
31 69 139 36 74 144 0
31 69 174 36 74 179 0
31 123 174 36 128 179 0
31 139 156 36 144 161 0
31 156 174 36 161 179 0
39 48 193 44 53 198 0
39 48 234 44 53 239 0
39 69 81 44 74 86 0
39 69 193 44 74 198 0
39 81 234 44 86 239 0
39 81 256 44 86 261 0
39 123 234 44 128 239 0
39 123 256 44 128 261 0
39 193 256 44 198 261 0
48 58 94 53 63 99 0
48 58 213 53 63 218 0
48 94 156 53 99 161 0
48 94 193 53 99 198 0
48 156 234 53 161 239 0
48 193 213 53 198 218 0
48 213 234 53 218 239 0
58 94 108 63 99 113 0
58 94 256 63 99 261 0
58 108 123 63 113 128 0
58 108 213 63 113 218 0
58 123 256 63 128 261 0
58 139 213 63 144 218 0
58 139 256 63 144 261 0
69 81 108 74 86 113 0
69 81 139 74 86 144 0
69 108 174 74 113 179 0
69 108 213 74 113 218 0
69 139 213 74 144 218 0
69 174 193 74 179 198 0
69 193 213 74 198 218 0
81 94 108 86 99 113 0
81 94 156 86 99 161 0
81 94 256 86 99 261 0
81 108 234 86 113 239 0
81 139 156 86 144 161 0
81 139 256 86 144 261 0
81 156 234 86 161 239 0
94 108 174 99 113 179 0
94 156 174 99 161 179 0
94 174 193 99 179 198 0
94 193 256 99 198 261 0
108 123 174 113 128 179 0
108 123 234 113 128 239 0
108 213 234 113 218 239 0
32 40 33 41 34 42 0
32 49 33 50 34 51 0
32 59 33 60 34 61 0
32 70 33 71 34 72 0
32 124 33 125 34 126 0
32 140 33 141 34 142 0
32 157 33 158 34 159 0
32 175 33 176 34 177 0
40 49 41 50 42 51 0
40 70 41 71 42 72 0
40 82 41 83 42 84 0
40 124 41 125 42 126 0
40 194 41 195 42 196 0
40 235 41 236 42 237 0
40 257 41 258 42 259 0
49 59 50 60 51 61 0
49 95 50 96 51 97 0
49 157 50 158 51 159 0
49 194 50 195 51 196 0
49 214 50 215 51 216 0
49 235 50 236 51 237 0
59 95 60 96 61 97 0
59 109 60 110 61 111 0
59 124 60 125 61 126 0
59 140 60 141 61 142 0
59 214 60 215 61 216 0
59 257 60 258 61 259 0
70 82 71 83 72 84 0
70 109 71 110 72 111 0
70 140 71 141 72 142 0
70 175 71 176 72 177 0
70 194 71 195 72 196 0
70 214 71 215 72 216 0
82 95 83 96 84 97 0
82 109 83 110 84 111 0
82 140 83 141 84 142 0
82 157 83 158 84 159 0
82 235 83 236 84 237 0
82 257 83 258 84 259 0
95 109 96 110 97 111 0
95 157 96 158 97 159 0
95 175 96 176 97 177 0
95 194 96 195 97 196 0
95 257 96 258 97 259 0
109 124 110 125 111 126 0
109 175 110 176 111 177 0
109 214 110 215 111 216 0
109 235 110 236 111 237 0
124 175 125 176 126 177 0
124 235 125 236 126 237 0
124 257 125 258 126 259 0
140 157 141 158 142 159 0
140 214 141 215 142 216 0
140 257 141 258 142 259 0
157 175 158 176 159 177 0
157 235 158 236 159 237 0
175 194 176 195 177 196 0
194 214 195 215 196 216 0
194 257 195 258 196 259 0
214 235 215 236 216 237 0
32 40 49 33 41 50 0
32 40 70 33 41 71 0
32 40 124 33 41 125 0
32 49 59 33 50 60 0
32 49 157 33 50 158 0
32 59 124 33 60 125 0
32 59 140 33 60 141 0
32 70 140 33 71 141 0
32 70 175 33 71 176 0
32 124 175 33 125 176 0
32 140 157 33 141 158 0
32 157 175 33 158 176 0
40 49 194 41 50 195 0
40 49 235 41 50 236 0
40 70 82 41 71 83 0
40 70 194 41 71 195 0
40 82 235 41 83 236 0
40 82 257 41 83 258 0
40 124 235 41 125 236 0
40 124 257 41 125 258 0
40 194 257 41 195 258 0
49 59 95 50 60 96 0
49 59 214 50 60 215 0
49 95 157 50 96 158 0
49 95 194 50 96 195 0
49 157 235 50 158 236 0
49 194 214 50 195 215 0
49 214 235 50 215 236 0
59 95 109 60 96 110 0
59 95 257 60 96 258 0
59 109 124 60 110 125 0
59 109 214 60 110 215 0
59 124 257 60 125 258 0
59 140 214 60 141 215 0
59 140 257 60 141 258 0
70 82 109 71 83 110 0
70 82 140 71 83 141 0
70 109 175 71 110 176 0
70 109 214 71 110 215 0
70 140 214 71 141 215 0
70 175 194 71 176 195 0
70 194 214 71 195 215 0
82 95 109 83 96 110 0
82 95 157 83 96 158 0
82 95 257 83 96 258 0
82 109 235 83 110 236 0
82 140 157 83 141 158 0
82 140 257 83 141 258 0
82 157 235 83 158 236 0
95 109 175 96 110 176 0
95 157 175 96 158 176 0
95 175 194 96 176 195 0
95 194 257 96 195 258 0
109 124 175 110 125 176 0
109 124 235 110 125 236 0
109 214 235 110 215 236 0
32 40 49 34 42 51 0
32 40 70 34 42 72 0
32 40 124 34 42 126 0
32 49 59 34 51 61 0
32 49 157 34 51 159 0
32 59 124 34 61 126 0
32 59 140 34 61 142 0
32 70 140 34 72 142 0
32 70 175 34 72 177 0
32 124 175 34 126 177 0
32 140 157 34 142 159 0
32 157 175 34 159 177 0
40 49 194 42 51 196 0
40 49 235 42 51 237 0
40 70 82 42 72 84 0
40 70 194 42 72 196 0
40 82 235 42 84 237 0
40 82 257 42 84 259 0
40 124 235 42 126 237 0
40 124 257 42 126 259 0
40 194 257 42 196 259 0
49 59 95 51 61 97 0
49 59 214 51 61 216 0
49 95 157 51 97 159 0
49 95 194 51 97 196 0
49 157 235 51 159 237 0
49 194 214 51 196 216 0
49 214 235 51 216 237 0
59 95 109 61 97 111 0
59 95 257 61 97 259 0
59 109 124 61 111 126 0
59 109 214 61 111 216 0
59 124 257 61 126 259 0
59 140 214 61 142 216 0
59 140 257 61 142 259 0
70 82 109 72 84 111 0
70 82 140 72 84 142 0
70 109 175 72 111 177 0
70 109 214 72 111 216 0
70 140 214 72 142 216 0
70 175 194 72 177 196 0
70 194 214 72 196 216 0
82 95 109 84 97 111 0
82 95 157 84 97 159 0
82 95 257 84 97 259 0
82 109 235 84 111 237 0
82 140 157 84 142 159 0
82 140 257 84 142 259 0
82 157 235 84 159 237 0
95 109 175 97 111 177 0
95 157 175 97 159 177 0
95 175 194 97 177 196 0
95 194 257 97 196 259 0
109 124 175 111 126 177 0
109 124 235 111 126 237 0
109 214 235 111 216 237 0
33 41 50 34 42 51 0
33 41 71 34 42 72 0
33 41 125 34 42 126 0
33 50 60 34 51 61 0
33 50 158 34 51 159 0
33 60 125 34 61 126 0
33 60 141 34 61 142 0
33 71 141 34 72 142 0
33 71 176 34 72 177 0
33 125 176 34 126 177 0
33 141 158 34 142 159 0
33 158 176 34 159 177 0
41 50 195 42 51 196 0
41 50 236 42 51 237 0
41 71 83 42 72 84 0
41 71 195 42 72 196 0
41 83 236 42 84 237 0
41 83 258 42 84 259 0
41 125 236 42 126 237 0
41 125 258 42 126 259 0
41 195 258 42 196 259 0
50 60 96 51 61 97 0
50 60 215 51 61 216 0
50 96 158 51 97 159 0
50 96 195 51 97 196 0
50 158 236 51 159 237 0
50 195 215 51 196 216 0
50 215 236 51 216 237 0
60 96 110 61 97 111 0
60 96 258 61 97 259 0
60 110 125 61 111 126 0
60 110 215 61 111 216 0
60 125 258 61 126 259 0
60 141 215 61 142 216 0
60 141 258 61 142 259 0
71 83 110 72 84 111 0
71 83 141 72 84 142 0
71 110 176 72 111 177 0
71 110 215 72 111 216 0
71 141 215 72 142 216 0
71 176 195 72 177 196 0
71 195 215 72 196 216 0
83 96 110 84 97 111 0
83 96 158 84 97 159 0
83 96 258 84 97 259 0
83 110 236 84 111 237 0
83 141 158 84 142 159 0
83 141 258 84 142 259 0
83 158 236 84 159 237 0
96 110 176 97 111 177 0
96 158 176 97 159 177 0
96 176 195 97 177 196 0
96 195 258 97 196 259 0
110 125 176 111 126 177 0
110 125 236 111 126 237 0
110 215 236 111 216 237 0
27 34 42 51 36 44 53 0
27 34 42 72 36 44 74 0
27 34 42 126 36 44 128 0
27 34 51 61 36 53 63 0
27 34 51 159 36 53 161 0
27 34 61 126 36 63 128 0
27 34 61 142 36 63 144 0
27 34 72 142 36 74 144 0
27 34 72 177 36 74 179 0
27 34 126 177 36 128 179 0
27 34 142 159 36 144 161 0
27 34 159 177 36 161 179 0
27 42 51 196 44 53 198 0
27 42 51 237 44 53 239 0
27 42 72 84 44 74 86 0
27 42 72 196 44 74 198 0
27 42 84 237 44 86 239 0
27 42 84 259 44 86 261 0
27 42 126 237 44 128 239 0
27 42 126 259 44 128 261 0
27 42 196 259 44 198 261 0
27 51 61 97 53 63 99 0
27 51 61 216 53 63 218 0
27 51 97 159 53 99 161 0
27 51 97 196 53 99 198 0
27 51 159 237 53 161 239 0
27 51 196 216 53 198 218 0
27 51 216 237 53 218 239 0
27 61 97 111 63 99 113 0
27 61 97 259 63 99 261 0
27 61 111 126 63 113 128 0
27 61 111 216 63 113 218 0
27 61 126 259 63 128 261 0
27 61 142 216 63 144 218 0
27 61 142 259 63 144 261 0
27 72 84 111 74 86 113 0
27 72 84 142 74 86 144 0
27 72 111 177 74 113 179 0
27 72 111 216 74 113 218 0
27 72 142 216 74 144 218 0
27 72 177 196 74 179 198 0
27 72 196 216 74 198 218 0
27 84 97 111 86 99 113 0
27 84 97 159 86 99 161 0
27 84 97 259 86 99 261 0
27 84 111 237 86 113 239 0
27 84 142 159 86 144 161 0
27 84 142 259 86 144 261 0
27 84 159 237 86 161 239 0
27 97 111 177 99 113 179 0
27 97 159 177 99 161 179 0
27 97 177 196 99 179 198 0
27 97 196 259 99 198 261 0
27 111 126 177 113 128 179 0
27 111 126 237 113 128 239 0
27 111 216 237 113 218 239 0
35 43 52 36 44 53 0
35 43 73 36 44 74 0
35 43 127 36 44 128 0
35 52 62 36 53 63 0
35 52 160 36 53 161 0
35 62 127 36 63 128 0
35 62 143 36 63 144 0
35 73 143 36 74 144 0
35 73 178 36 74 179 0
35 127 178 36 128 179 0
35 143 160 36 144 161 0
35 160 178 36 161 179 0
43 52 197 44 53 198 0
43 52 238 44 53 239 0
43 73 85 44 74 86 0
43 73 197 44 74 198 0
43 85 238 44 86 239 0
43 85 260 44 86 261 0
43 127 238 44 128 239 0
43 127 260 44 128 261 0
43 197 260 44 198 261 0
52 62 98 53 63 99 0
52 62 217 53 63 218 0
52 98 160 53 99 161 0
52 98 197 53 99 198 0
52 160 238 53 161 239 0
52 197 217 53 198 218 0
52 217 238 53 218 239 0
62 98 112 63 99 113 0
62 98 260 63 99 261 0
62 112 127 63 113 128 0
62 112 217 63 113 218 0
62 127 260 63 128 261 0
62 143 217 63 144 218 0
62 143 260 63 144 261 0
73 85 112 74 86 113 0
73 85 143 74 86 144 0
73 112 178 74 113 179 0
73 112 217 74 113 218 0
73 143 217 74 144 218 0
73 178 197 74 179 198 0
73 197 217 74 198 218 0
85 98 112 86 99 113 0
85 98 160 86 99 161 0
85 98 260 86 99 261 0
85 112 238 86 113 239 0
85 143 160 86 144 161 0
85 143 260 86 144 261 0
85 160 238 86 161 239 0
98 112 178 99 113 179 0
98 160 178 99 161 179 0
98 178 197 99 179 198 0
98 197 260 99 198 261 0
112 127 178 113 128 179 0
112 127 238 113 128 239 0
112 217 238 113 218 239 0
