p cnf 36 210
-1 -2 -3 0
-1 -4 -5 0
-1 -7 -8 0
-1 -11 -12 0
-1 -16 -17 0
-1 -22 -23 0
-1 -29 -30 0
-2 -4 -6 0
-2 -7 -9 0
-2 -11 -13 0
-2 -16 -18 0
-2 -22 -24 0
-2 -29 -31 0
-4 -7 -10 0
-4 -11 -14 0
-4 -16 -19 0
-4 -22 -25 0
-4 -29 -32 0
-7 -11 -15 0
-7 -16 -20 0
-7 -22 -26 0
-7 -29 -33 0
-11 -16 -21 0
-11 -22 -27 0
-11 -29 -34 0
-16 -22 -28 0
-16 -29 -35 0
-22 -29 -36 0
-3 -5 -6 0
-3 -8 -9 0
-3 -12 -13 0
-3 -17 -18 0
-3 -23 -24 0
-3 -30 -31 0
-5 -8 -10 0
-5 -12 -14 0
-5 -17 -19 0
-5 -23 -25 0
-5 -30 -32 0
-8 -12 -15 0
-8 -17 -20 0
-8 -23 -26 0
-8 -30 -33 0
-12 -17 -21 0
-12 -23 -27 0
-12 -30 -34 0
-17 -23 -28 0
-17 -30 -35 0
-23 -30 -36 0
-6 -9 -10 0
-6 -13 -14 0
-6 -18 -19 0
-6 -24 -25 0
-6 -31 -32 0
-9 -13 -15 0
-9 -18 -20 0
-9 -24 -26 0
-9 -31 -33 0
-13 -18 -21 0
-13 -24 -27 0
-13 -31 -34 0
-18 -24 -28 0
-18 -31 -35 0
-24 -31 -36 0
-10 -14 -15 0
-10 -19 -20 0
-10 -25 -26 0
-10 -32 -33 0
-14 -19 -21 0
-14 -25 -27 0
-14 -32 -34 0
-19 -25 -28 0
-19 -32 -35 0
-25 -32 -36 0
-15 -20 -21 0
-15 -26 -27 0
-15 -33 -34 0
-20 -26 -28 0
-20 -33 -35 0
-26 -33 -36 0
-21 -27 -28 0
-21 -34 -35 0
-27 -34 -36 0
-28 -35 -36 0
1 2 4 3 5 6 0
1 2 7 3 8 9 0
1 2 11 3 12 13 0
1 2 16 3 17 18 0
1 2 22 3 23 24 0
1 2 29 3 30 31 0
1 4 7 5 8 10 0
1 4 11 5 12 14 0
1 4 16 5 17 19 0
1 4 22 5 23 25 0
1 4 29 5 30 32 0
1 7 11 8 12 15 0
1 7 16 8 17 20 0
1 7 22 8 23 26 0
1 7 29 8 30 33 0
1 11 16 12 17 21 0
1 11 22 12 23 27 0
1 11 29 12 30 34 0
1 16 22 17 23 28 0
1 16 29 17 30 35 0
1 22 29 23 30 36 0
2 4 7 6 9 10 0
2 4 11 6 13 14 0
2 4 16 6 18 19 0
2 4 22 6 24 25 0
2 4 29 6 31 32 0
2 7 11 9 13 15 0
2 7 16 9 18 20 0
2 7 22 9 24 26 0
2 7 29 9 31 33 0
2 11 16 13 18 21 0
2 11 22 13 24 27 0
2 11 29 13 31 34 0
2 16 22 18 24 28 0
2 16 29 18 31 35 0
2 22 29 24 31 36 0
4 7 11 10 14 15 0
4 7 16 10 19 20 0
4 7 22 10 25 26 0
4 7 29 10 32 33 0
4 11 16 14 19 21 0
4 11 22 14 25 27 0
4 11 29 14 32 34 0
4 16 22 19 25 28 0
4 16 29 19 32 35 0
4 22 29 25 32 36 0
7 11 16 15 20 21 0
7 11 22 15 26 27 0
7 11 29 15 33 34 0
7 16 22 20 26 28 0
7 16 29 20 33 35 0
7 22 29 26 33 36 0
11 16 22 21 27 28 0
11 16 29 21 34 35 0
11 22 29 27 34 36 0
16 22 29 28 35 36 0
3 5 8 6 9 10 0
3 5 12 6 13 14 0
3 5 17 6 18 19 0
3 5 23 6 24 25 0
3 5 30 6 31 32 0
3 8 12 9 13 15 0
3 8 17 9 18 20 0
3 8 23 9 24 26 0
3 8 30 9 31 33 0
3 12 17 13 18 21 0
3 12 23 13 24 27 0
3 12 30 13 31 34 0
3 17 23 18 24 28 0
3 17 30 18 31 35 0
3 23 30 24 31 36 0
5 8 12 10 14 15 0
5 8 17 10 19 20 0
5 8 23 10 25 26 0
5 8 30 10 32 33 0
5 12 17 14 19 21 0
5 12 23 14 25 27 0
5 12 30 14 32 34 0
5 17 23 19 25 28 0
5 17 30 19 32 35 0
5 23 30 25 32 36 0
8 12 17 15 20 21 0
8 12 23 15 26 27 0
8 12 30 15 33 34 0
8 17 23 20 26 28 0
8 17 30 20 33 35 0
8 23 30 26 33 36 0
12 17 23 21 27 28 0
12 17 30 21 34 35 0
12 23 30 27 34 36 0
17 23 30 28 35 36 0
6 9 13 10 14 15 0
6 9 18 10 19 20 0
6 9 24 10 25 26 0
6 9 31 10 32 33 0
6 13 18 14 19 21 0
6 13 24 14 25 27 0
6 13 31 14 32 34 0
6 18 24 19 25 28 0
6 18 31 19 32 35 0
6 24 31 25 32 36 0
9 13 18 15 20 21 0
9 13 24 15 26 27 0
9 13 31 15 33 34 0
9 18 24 20 26 28 0
9 18 31 20 33 35 0
9 24 31 26 33 36 0
13 18 24 21 27 28 0
13 18 31 21 34 35 0
13 24 31 27 34 36 0
18 24 31 28 35 36 0
10 14 19 15 20 21 0
10 14 25 15 26 27 0
10 14 32 15 33 34 0
10 19 25 20 26 28 0
10 19 32 20 33 35 0
10 25 32 26 33 36 0
14 19 25 21 27 28 0
14 19 32 21 34 35 0
14 25 32 27 34 36 0
19 25 32 28 35 36 0
15 20 26 21 27 28 0
15 20 33 21 34 35 0
15 26 33 27 34 36 0
20 26 33 28 35 36 0
21 27 34 28 35 36 0
